<?xml version="1.0"?>
<!-- Time step: 1 | Time: 1.000000000000e+00 -->
<VTKFile type="UnstructuredGrid" version="0.1" byte_order="LittleEndian">
  <UnstructuredGrid>
    <Piece NumberOfPoints="527" NumberOfCells="480">
      <Points>
        <DataArray type="Float64" NumberOfComponents="3" format="ascii">
          1.750000000000e-01 0.000000000000e+00 0.000000000000e+00
          1.766666666667e-01 0.000000000000e+00 0.000000000000e+00
          1.783333333333e-01 0.000000000000e+00 0.000000000000e+00
          1.800000000000e-01 0.000000000000e+00 0.000000000000e+00
          1.816666666667e-01 0.000000000000e+00 0.000000000000e+00
          1.833333333333e-01 0.000000000000e+00 0.000000000000e+00
          1.850000000000e-01 0.000000000000e+00 0.000000000000e+00
          1.866666666667e-01 0.000000000000e+00 0.000000000000e+00
          1.883333333333e-01 0.000000000000e+00 0.000000000000e+00
          1.900000000000e-01 0.000000000000e+00 0.000000000000e+00
          1.916666666667e-01 0.000000000000e+00 0.000000000000e+00
          1.933333333333e-01 0.000000000000e+00 0.000000000000e+00
          1.950000000000e-01 0.000000000000e+00 0.000000000000e+00
          1.966666666667e-01 0.000000000000e+00 0.000000000000e+00
          1.983333333333e-01 0.000000000000e+00 0.000000000000e+00
          2.000000000000e-01 0.000000000000e+00 0.000000000000e+00
          2.016666666667e-01 0.000000000000e+00 0.000000000000e+00
          2.033333333333e-01 0.000000000000e+00 0.000000000000e+00
          2.050000000000e-01 0.000000000000e+00 0.000000000000e+00
          2.066666666667e-01 0.000000000000e+00 0.000000000000e+00
          2.083333333333e-01 0.000000000000e+00 0.000000000000e+00
          2.100000000000e-01 0.000000000000e+00 0.000000000000e+00
          2.116666666667e-01 0.000000000000e+00 0.000000000000e+00
          2.133333333333e-01 0.000000000000e+00 0.000000000000e+00
          2.150000000000e-01 0.000000000000e+00 0.000000000000e+00
          2.166666666667e-01 0.000000000000e+00 0.000000000000e+00
          2.183333333333e-01 0.000000000000e+00 0.000000000000e+00
          2.200000000000e-01 0.000000000000e+00 0.000000000000e+00
          2.216666666667e-01 0.000000000000e+00 0.000000000000e+00
          2.233333333333e-01 0.000000000000e+00 0.000000000000e+00
          2.250000000000e-01 0.000000000000e+00 0.000000000000e+00
          1.741573271428e-01 1.715299981026e-02 0.000000000000e+00
          1.758159683536e-01 1.731636171321e-02 0.000000000000e+00
          1.774746095645e-01 1.747972361617e-02 0.000000000000e+00
          1.791332507754e-01 1.764308551912e-02 0.000000000000e+00
          1.807918919863e-01 1.780644742208e-02 0.000000000000e+00
          1.824505331972e-01 1.796980932503e-02 0.000000000000e+00
          1.841091744081e-01 1.813317122799e-02 0.000000000000e+00
          1.857678156189e-01 1.829653313094e-02 0.000000000000e+00
          1.874264568298e-01 1.845989503390e-02 0.000000000000e+00
          1.890850980407e-01 1.862325693685e-02 0.000000000000e+00
          1.907437392516e-01 1.878661883981e-02 0.000000000000e+00
          1.924023804625e-01 1.894998074276e-02 0.000000000000e+00
          1.940610216734e-01 1.911334264571e-02 0.000000000000e+00
          1.957196628842e-01 1.927670454867e-02 0.000000000000e+00
          1.973783040951e-01 1.944006645162e-02 0.000000000000e+00
          1.990369453060e-01 1.960342835458e-02 0.000000000000e+00
          2.006955865169e-01 1.976679025753e-02 0.000000000000e+00
          2.023542277278e-01 1.993015216049e-02 0.000000000000e+00
          2.040128689387e-01 2.009351406344e-02 0.000000000000e+00
          2.056715101495e-01 2.025687596640e-02 0.000000000000e+00
          2.073301513604e-01 2.042023786935e-02 0.000000000000e+00
          2.089887925713e-01 2.058359977231e-02 0.000000000000e+00
          2.106474337822e-01 2.074696167526e-02 0.000000000000e+00
          2.123060749931e-01 2.091032357822e-02 0.000000000000e+00
          2.139647162040e-01 2.107368548117e-02 0.000000000000e+00
          2.156233574148e-01 2.123704738413e-02 0.000000000000e+00
          2.172819986257e-01 2.140040928708e-02 0.000000000000e+00
          2.189406398366e-01 2.156377119004e-02 0.000000000000e+00
          2.205992810475e-01 2.172713309299e-02 0.000000000000e+00
          2.222579222584e-01 2.189049499595e-02 0.000000000000e+00
          2.239165634693e-01 2.205385689890e-02 0.000000000000e+00
          1.716374239715e-01 3.414080685068e-02 0.000000000000e+00
          1.732720661046e-01 3.446595739212e-02 0.000000000000e+00
          1.749067082377e-01 3.479110793355e-02 0.000000000000e+00
          1.765413503707e-01 3.511625847499e-02 0.000000000000e+00
          1.781759925038e-01 3.544140901642e-02 0.000000000000e+00
          1.798106346368e-01 3.576655955786e-02 0.000000000000e+00
          1.814452767699e-01 3.609171009929e-02 0.000000000000e+00
          1.830799189030e-01 3.641686064073e-02 0.000000000000e+00
          1.847145610360e-01 3.674201118216e-02 0.000000000000e+00
          1.863492031691e-01 3.706716172360e-02 0.000000000000e+00
          1.879838453022e-01 3.739231226503e-02 0.000000000000e+00
          1.896184874352e-01 3.771746280647e-02 0.000000000000e+00
          1.912531295683e-01 3.804261334790e-02 0.000000000000e+00
          1.928877717013e-01 3.836776388934e-02 0.000000000000e+00
          1.945224138344e-01 3.869291443077e-02 0.000000000000e+00
          1.961570559675e-01 3.901806497221e-02 0.000000000000e+00
          1.977916981005e-01 3.934321551364e-02 0.000000000000e+00
          1.994263402336e-01 3.966836605508e-02 0.000000000000e+00
          2.010609823667e-01 3.999351659651e-02 0.000000000000e+00
          2.026956244997e-01 4.031866713795e-02 0.000000000000e+00
          2.043302666328e-01 4.064381767938e-02 0.000000000000e+00
          2.059649087658e-01 4.096896822082e-02 0.000000000000e+00
          2.075995508989e-01 4.129411876225e-02 0.000000000000e+00
          2.092341930320e-01 4.161926930369e-02 0.000000000000e+00
          2.108688351650e-01 4.194441984512e-02 0.000000000000e+00
          2.125034772981e-01 4.226957038656e-02 0.000000000000e+00
          2.141381194312e-01 4.259472092799e-02 0.000000000000e+00
          2.157727615642e-01 4.291987146943e-02 0.000000000000e+00
          2.174074036973e-01 4.324502201086e-02 0.000000000000e+00
          2.190420458303e-01 4.357017255230e-02 0.000000000000e+00
          2.206766879634e-01 4.389532309373e-02 0.000000000000e+00
          1.674645585321e-01 5.079981924816e-02 0.000000000000e+00
          1.690594590896e-01 5.128362705053e-02 0.000000000000e+00
          1.706543596470e-01 5.176743485289e-02 0.000000000000e+00
          1.722492602045e-01 5.225124265525e-02 0.000000000000e+00
          1.738441607619e-01 5.273505045762e-02 0.000000000000e+00
          1.754390613194e-01 5.321885825998e-02 0.000000000000e+00
          1.770339618768e-01 5.370266606234e-02 0.000000000000e+00
          1.786288624342e-01 5.418647386471e-02 0.000000000000e+00
          1.802237629917e-01 5.467028166707e-02 0.000000000000e+00
          1.818186635491e-01 5.515408946943e-02 0.000000000000e+00
          1.834135641066e-01 5.563789727180e-02 0.000000000000e+00
          1.850084646640e-01 5.612170507416e-02 0.000000000000e+00
          1.866033652215e-01 5.660551287652e-02 0.000000000000e+00
          1.881982657789e-01 5.708932067889e-02 0.000000000000e+00
          1.897931663364e-01 5.757312848125e-02 0.000000000000e+00
          1.913880668938e-01 5.805693628361e-02 0.000000000000e+00
          1.929829674513e-01 5.854074408598e-02 0.000000000000e+00
          1.945778680087e-01 5.902455188834e-02 0.000000000000e+00
          1.961727685662e-01 5.950835969070e-02 0.000000000000e+00
          1.977676691236e-01 5.999216749307e-02 0.000000000000e+00
          1.993625696811e-01 6.047597529543e-02 0.000000000000e+00
          2.009574702385e-01 6.095978309779e-02 0.000000000000e+00
          2.025523707960e-01 6.144359090016e-02 0.000000000000e+00
          2.041472713534e-01 6.192739870252e-02 0.000000000000e+00
          2.057421719109e-01 6.241120650488e-02 0.000000000000e+00
          2.073370724683e-01 6.289501430725e-02 0.000000000000e+00
          2.089319730258e-01 6.337882210961e-02 0.000000000000e+00
          2.105268735832e-01 6.386262991198e-02 0.000000000000e+00
          2.121217741407e-01 6.434643771434e-02 0.000000000000e+00
          2.137166746981e-01 6.483024551670e-02 0.000000000000e+00
          2.153115752556e-01 6.531405331907e-02 0.000000000000e+00
          1.616789178010e-01 6.696960160183e-02 0.000000000000e+00
          1.632187170181e-01 6.760740733138e-02 0.000000000000e+00
          1.647585162353e-01 6.824521306092e-02 0.000000000000e+00
          1.662983154524e-01 6.888301879046e-02 0.000000000000e+00
          1.678381146696e-01 6.952082452000e-02 0.000000000000e+00
          1.693779138867e-01 7.015863024954e-02 0.000000000000e+00
          1.709177131039e-01 7.079643597908e-02 0.000000000000e+00
          1.724575123210e-01 7.143424170862e-02 0.000000000000e+00
          1.739973115382e-01 7.207204743817e-02 0.000000000000e+00
          1.755371107553e-01 7.270985316771e-02 0.000000000000e+00
          1.770769099725e-01 7.334765889725e-02 0.000000000000e+00
          1.786167091896e-01 7.398546462679e-02 0.000000000000e+00
          1.801565084068e-01 7.462327035633e-02 0.000000000000e+00
          1.816963076239e-01 7.526107608587e-02 0.000000000000e+00
          1.832361068411e-01 7.589888181541e-02 0.000000000000e+00
          1.847759060582e-01 7.653668754495e-02 0.000000000000e+00
          1.863157052754e-01 7.717449327450e-02 0.000000000000e+00
          1.878555044926e-01 7.781229900404e-02 0.000000000000e+00
          1.893953037097e-01 7.845010473358e-02 0.000000000000e+00
          1.909351029269e-01 7.908791046312e-02 0.000000000000e+00
          1.924749021440e-01 7.972571619266e-02 0.000000000000e+00
          1.940147013612e-01 8.036352192220e-02 0.000000000000e+00
          1.955545005783e-01 8.100132765174e-02 0.000000000000e+00
          1.970942997955e-01 8.163913338128e-02 0.000000000000e+00
          1.986340990126e-01 8.227693911083e-02 0.000000000000e+00
          2.001738982298e-01 8.291474484037e-02 0.000000000000e+00
          2.017136974469e-01 8.355255056991e-02 0.000000000000e+00
          2.032534966641e-01 8.419035629945e-02 0.000000000000e+00
          2.047932958812e-01 8.482816202899e-02 0.000000000000e+00
          2.063330950984e-01 8.546596775853e-02 0.000000000000e+00
          2.078728943155e-01 8.610377348807e-02 0.000000000000e+00
          1.543362206627e-01 8.249443006373e-02 0.000000000000e+00
          1.558060894310e-01 8.328009130244e-02 0.000000000000e+00
          1.572759581992e-01 8.406575254114e-02 0.000000000000e+00
          1.587458269674e-01 8.485141377984e-02 0.000000000000e+00
          1.602156957356e-01 8.563707501854e-02 0.000000000000e+00
          1.616855645038e-01 8.642273625724e-02 0.000000000000e+00
          1.631554332720e-01 8.720839749595e-02 0.000000000000e+00
          1.646253020403e-01 8.799405873465e-02 0.000000000000e+00
          1.660951708085e-01 8.877971997335e-02 0.000000000000e+00
          1.675650395767e-01 8.956538121205e-02 0.000000000000e+00
          1.690349083449e-01 9.035104245076e-02 0.000000000000e+00
          1.705047771131e-01 9.113670368946e-02 0.000000000000e+00
          1.719746458813e-01 9.192236492816e-02 0.000000000000e+00
          1.734445146496e-01 9.270802616686e-02 0.000000000000e+00
          1.749143834178e-01 9.349368740556e-02 0.000000000000e+00
          1.763842521860e-01 9.427934864427e-02 0.000000000000e+00
          1.778541209542e-01 9.506500988297e-02 0.000000000000e+00
          1.793239897224e-01 9.585067112167e-02 0.000000000000e+00
          1.807938584906e-01 9.663633236037e-02 0.000000000000e+00
          1.822637272589e-01 9.742199359908e-02 0.000000000000e+00
          1.837335960271e-01 9.820765483778e-02 0.000000000000e+00
          1.852034647953e-01 9.899331607648e-02 0.000000000000e+00
          1.866733335635e-01 9.977897731518e-02 0.000000000000e+00
          1.881432023317e-01 1.005646385539e-01 0.000000000000e+00
          1.896130710999e-01 1.013502997926e-01 0.000000000000e+00
          1.910829398682e-01 1.021359610313e-01 0.000000000000e+00
          1.925528086364e-01 1.029216222700e-01 0.000000000000e+00
          1.940226774046e-01 1.037072835087e-01 0.000000000000e+00
          1.954925461728e-01 1.044929447474e-01 0.000000000000e+00
          1.969624149410e-01 1.052786059861e-01 0.000000000000e+00
          1.984322837092e-01 1.060642672248e-01 0.000000000000e+00
          1.455071813069e-01 9.722479204462e-02 0.000000000000e+00
          1.468929639860e-01 9.815074244505e-02 0.000000000000e+00
          1.482787466651e-01 9.907669284547e-02 0.000000000000e+00
          1.496645293442e-01 1.000026432459e-01 0.000000000000e+00
          1.510503120234e-01 1.009285936463e-01 0.000000000000e+00
          1.524360947025e-01 1.018545440467e-01 0.000000000000e+00
          1.538218773816e-01 1.027804944472e-01 0.000000000000e+00
          1.552076600607e-01 1.037064448476e-01 0.000000000000e+00
          1.565934427398e-01 1.046323952480e-01 0.000000000000e+00
          1.579792254189e-01 1.055583456484e-01 0.000000000000e+00
          1.593650080980e-01 1.064842960489e-01 0.000000000000e+00
          1.607507907772e-01 1.074102464493e-01 0.000000000000e+00
          1.621365734563e-01 1.083361968497e-01 0.000000000000e+00
          1.635223561354e-01 1.092621472501e-01 0.000000000000e+00
          1.649081388145e-01 1.101880976506e-01 0.000000000000e+00
          1.662939214936e-01 1.111140480510e-01 0.000000000000e+00
          1.676797041727e-01 1.120399984514e-01 0.000000000000e+00
          1.690654868518e-01 1.129659488518e-01 0.000000000000e+00
          1.704512695309e-01 1.138918992523e-01 0.000000000000e+00
          1.718370522101e-01 1.148178496527e-01 0.000000000000e+00
          1.732228348892e-01 1.157438000531e-01 0.000000000000e+00
          1.746086175683e-01 1.166697504535e-01 0.000000000000e+00
          1.759944002474e-01 1.175957008540e-01 0.000000000000e+00
          1.773801829265e-01 1.185216512544e-01 0.000000000000e+00
          1.787659656056e-01 1.194476016548e-01 0.000000000000e+00
          1.801517482847e-01 1.203735520552e-01 0.000000000000e+00
          1.815375309639e-01 1.212995024557e-01 0.000000000000e+00
          1.829233136430e-01 1.222254528561e-01 0.000000000000e+00
          1.843090963221e-01 1.231514032565e-01 0.000000000000e+00
          1.856948790012e-01 1.240773536569e-01 0.000000000000e+00
          1.870806616803e-01 1.250033040574e-01 0.000000000000e+00
          1.352768282114e-01 1.110188261020e-01 0.000000000000e+00
          1.365651789563e-01 1.120761482554e-01 0.000000000000e+00
          1.378535297011e-01 1.131334704087e-01 0.000000000000e+00
          1.391418804460e-01 1.141907925621e-01 0.000000000000e+00
          1.404302311909e-01 1.152481147154e-01 0.000000000000e+00
          1.417185819357e-01 1.163054368688e-01 0.000000000000e+00
          1.430069326806e-01 1.173627590221e-01 0.000000000000e+00
          1.442952834255e-01 1.184200811755e-01 0.000000000000e+00
          1.455836341704e-01 1.194774033288e-01 0.000000000000e+00
          1.468719849152e-01 1.205347254822e-01 0.000000000000e+00
          1.481603356601e-01 1.215920476355e-01 0.000000000000e+00
          1.494486864050e-01 1.226493697889e-01 0.000000000000e+00
          1.507370371498e-01 1.237066919422e-01 0.000000000000e+00
          1.520253878947e-01 1.247640140956e-01 0.000000000000e+00
          1.533137386396e-01 1.258213362489e-01 0.000000000000e+00
          1.546020893844e-01 1.268786584023e-01 0.000000000000e+00
          1.558904401293e-01 1.279359805556e-01 0.000000000000e+00
          1.571787908742e-01 1.289933027090e-01 0.000000000000e+00
          1.584671416191e-01 1.300506248623e-01 0.000000000000e+00
          1.597554923639e-01 1.311079470157e-01 0.000000000000e+00
          1.610438431088e-01 1.321652691690e-01 0.000000000000e+00
          1.623321938537e-01 1.332225913224e-01 0.000000000000e+00
          1.636205445985e-01 1.342799134758e-01 0.000000000000e+00
          1.649088953434e-01 1.353372356291e-01 0.000000000000e+00
          1.661972460883e-01 1.363945577825e-01 0.000000000000e+00
          1.674855968332e-01 1.374518799358e-01 0.000000000000e+00
          1.687739475780e-01 1.385092020892e-01 0.000000000000e+00
          1.700622983229e-01 1.395665242425e-01 0.000000000000e+00
          1.713506490678e-01 1.406238463959e-01 0.000000000000e+00
          1.726389998126e-01 1.416811685492e-01 0.000000000000e+00
          1.739273505575e-01 1.427384907026e-01 0.000000000000e+00
          1.237436852719e-01 1.237436881434e-01 0.000000000000e+00
          1.249221965602e-01 1.249221994590e-01 0.000000000000e+00
          1.261007078485e-01 1.261007107747e-01 0.000000000000e+00
          1.272792191368e-01 1.272792220903e-01 0.000000000000e+00
          1.284577304251e-01 1.284577334060e-01 0.000000000000e+00
          1.296362417134e-01 1.296362447216e-01 0.000000000000e+00
          1.308147530017e-01 1.308147560373e-01 0.000000000000e+00
          1.319932642900e-01 1.319932673529e-01 0.000000000000e+00
          1.331717755783e-01 1.331717786686e-01 0.000000000000e+00
          1.343502868666e-01 1.343502899842e-01 0.000000000000e+00
          1.355287981549e-01 1.355288012999e-01 0.000000000000e+00
          1.367073094432e-01 1.367073126156e-01 0.000000000000e+00
          1.378858207315e-01 1.378858239312e-01 0.000000000000e+00
          1.390643320199e-01 1.390643352469e-01 0.000000000000e+00
          1.402428433082e-01 1.402428465625e-01 0.000000000000e+00
          1.414213545965e-01 1.414213578782e-01 0.000000000000e+00
          1.425998658848e-01 1.425998691938e-01 0.000000000000e+00
          1.437783771731e-01 1.437783805095e-01 0.000000000000e+00
          1.449568884614e-01 1.449568918251e-01 0.000000000000e+00
          1.461353997497e-01 1.461354031408e-01 0.000000000000e+00
          1.473139110380e-01 1.473139144564e-01 0.000000000000e+00
          1.484924223263e-01 1.484924257721e-01 0.000000000000e+00
          1.496709336146e-01 1.496709370877e-01 0.000000000000e+00
          1.508494449029e-01 1.508494484034e-01 0.000000000000e+00
          1.520279561912e-01 1.520279597190e-01 0.000000000000e+00
          1.532064674795e-01 1.532064710347e-01 0.000000000000e+00
          1.543849787678e-01 1.543849823503e-01 0.000000000000e+00
          1.555634900561e-01 1.555634936660e-01 0.000000000000e+00
          1.567420013444e-01 1.567420049816e-01 0.000000000000e+00
          1.579205126327e-01 1.579205162973e-01 0.000000000000e+00
          1.590990239210e-01 1.590990276129e-01 0.000000000000e+00
          1.110188229629e-01 1.352768307876e-01 0.000000000000e+00
          1.120761450863e-01 1.365651815570e-01 0.000000000000e+00
          1.131334672098e-01 1.378535323264e-01 0.000000000000e+00
          1.141907893333e-01 1.391418830958e-01 0.000000000000e+00
          1.152481114567e-01 1.404302338652e-01 0.000000000000e+00
          1.163054335802e-01 1.417185846346e-01 0.000000000000e+00
          1.173627557036e-01 1.430069354040e-01 0.000000000000e+00
          1.184200778271e-01 1.442952861734e-01 0.000000000000e+00
          1.194773999505e-01 1.455836369428e-01 0.000000000000e+00
          1.205347220740e-01 1.468719877122e-01 0.000000000000e+00
          1.215920441974e-01 1.481603384817e-01 0.000000000000e+00
          1.226493663209e-01 1.494486892511e-01 0.000000000000e+00
          1.237066884444e-01 1.507370400205e-01 0.000000000000e+00
          1.247640105678e-01 1.520253907899e-01 0.000000000000e+00
          1.258213326913e-01 1.533137415593e-01 0.000000000000e+00
          1.268786548147e-01 1.546020923287e-01 0.000000000000e+00
          1.279359769382e-01 1.558904430981e-01 0.000000000000e+00
          1.289932990616e-01 1.571787938675e-01 0.000000000000e+00
          1.300506211851e-01 1.584671446369e-01 0.000000000000e+00
          1.311079433086e-01 1.597554954063e-01 0.000000000000e+00
          1.321652654320e-01 1.610438461757e-01 0.000000000000e+00
          1.332225875555e-01 1.623321969451e-01 0.000000000000e+00
          1.342799096789e-01 1.636205477145e-01 0.000000000000e+00
          1.353372318024e-01 1.649088984839e-01 0.000000000000e+00
          1.363945539258e-01 1.661972492533e-01 0.000000000000e+00
          1.374518760493e-01 1.674856000227e-01 0.000000000000e+00
          1.385091981727e-01 1.687739507921e-01 0.000000000000e+00
          1.395665202962e-01 1.700623015615e-01 0.000000000000e+00
          1.406238424197e-01 1.713506523310e-01 0.000000000000e+00
          1.416811645431e-01 1.726390031004e-01 0.000000000000e+00
          1.427384866666e-01 1.739273538698e-01 0.000000000000e+00
          9.722478866811e-02 1.455071835630e-01 0.000000000000e+00
          9.815073903638e-02 1.468929662636e-01 0.000000000000e+00
          9.907668940465e-02 1.482787489642e-01 0.000000000000e+00
          1.000026397729e-01 1.496645316648e-01 0.000000000000e+00
          1.009285901412e-01 1.510503143654e-01 0.000000000000e+00
          1.018545405095e-01 1.524360970660e-01 0.000000000000e+00
          1.027804908777e-01 1.538218797666e-01 0.000000000000e+00
          1.037064412460e-01 1.552076624672e-01 0.000000000000e+00
          1.046323916143e-01 1.565934451678e-01 0.000000000000e+00
          1.055583419825e-01 1.579792278684e-01 0.000000000000e+00
          1.064842923508e-01 1.593650105690e-01 0.000000000000e+00
          1.074102427191e-01 1.607507932696e-01 0.000000000000e+00
          1.083361930873e-01 1.621365759702e-01 0.000000000000e+00
          1.092621434556e-01 1.635223586708e-01 0.000000000000e+00
          1.101880938239e-01 1.649081413714e-01 0.000000000000e+00
          1.111140441921e-01 1.662939240720e-01 0.000000000000e+00
          1.120399945604e-01 1.676797067726e-01 0.000000000000e+00
          1.129659449287e-01 1.690654894732e-01 0.000000000000e+00
          1.138918952969e-01 1.704512721738e-01 0.000000000000e+00
          1.148178456652e-01 1.718370548744e-01 0.000000000000e+00
          1.157437960335e-01 1.732228375750e-01 0.000000000000e+00
          1.166697464017e-01 1.746086202756e-01 0.000000000000e+00
          1.175956967700e-01 1.759944029762e-01 0.000000000000e+00
          1.185216471383e-01 1.773801856768e-01 0.000000000000e+00
          1.194475975065e-01 1.787659683774e-01 0.000000000000e+00
          1.203735478748e-01 1.801517510780e-01 0.000000000000e+00
          1.212994982431e-01 1.815375337786e-01 0.000000000000e+00
          1.222254486113e-01 1.829233164792e-01 0.000000000000e+00
          1.231513989796e-01 1.843090991798e-01 0.000000000000e+00
          1.240773493479e-01 1.856948818804e-01 0.000000000000e+00
          1.250032997161e-01 1.870806645810e-01 0.000000000000e+00
          8.249442648235e-02 1.543362225770e-01 0.000000000000e+00
          8.328008768694e-02 1.558060913635e-01 0.000000000000e+00
          8.406574889153e-02 1.572759601499e-01 0.000000000000e+00
          8.485141009613e-02 1.587458289364e-01 0.000000000000e+00
          8.563707130072e-02 1.602156977228e-01 0.000000000000e+00
          8.642273250531e-02 1.616855665093e-01 0.000000000000e+00
          8.720839370991e-02 1.631554352957e-01 0.000000000000e+00
          8.799405491450e-02 1.646253040822e-01 0.000000000000e+00
          8.877971611910e-02 1.660951728686e-01 0.000000000000e+00
          8.956537732369e-02 1.675650416551e-01 0.000000000000e+00
          9.035103852828e-02 1.690349104415e-01 0.000000000000e+00
          9.113669973288e-02 1.705047792280e-01 0.000000000000e+00
          9.192236093747e-02 1.719746480144e-01 0.000000000000e+00
          9.270802214206e-02 1.734445168009e-01 0.000000000000e+00
          9.349368334666e-02 1.749143855873e-01 0.000000000000e+00
          9.427934455125e-02 1.763842543738e-01 0.000000000000e+00
          9.506500575585e-02 1.778541231602e-01 0.000000000000e+00
          9.585066696044e-02 1.793239919467e-01 0.000000000000e+00
          9.663632816503e-02 1.807938607331e-01 0.000000000000e+00
          9.742198936963e-02 1.822637295195e-01 0.000000000000e+00
          9.820765057422e-02 1.837335983060e-01 0.000000000000e+00
          9.899331177881e-02 1.852034670924e-01 0.000000000000e+00
          9.977897298341e-02 1.866733358789e-01 0.000000000000e+00
          1.005646341880e-01 1.881432046653e-01 0.000000000000e+00
          1.013502953926e-01 1.896130734518e-01 0.000000000000e+00
          1.021359565972e-01 1.910829422382e-01 0.000000000000e+00
          1.029216178018e-01 1.925528110247e-01 0.000000000000e+00
          1.037072790064e-01 1.940226798111e-01 0.000000000000e+00
          1.044929402110e-01 1.954925485976e-01 0.000000000000e+00
          1.052786014156e-01 1.969624173840e-01 0.000000000000e+00
          1.060642626202e-01 1.984322861705e-01 0.000000000000e+00
          6.696959785006e-02 1.616789193550e-01 0.000000000000e+00
          6.760740354387e-02 1.632187185870e-01 0.000000000000e+00
          6.824520923768e-02 1.647585178189e-01 0.000000000000e+00
          6.888301493149e-02 1.662983170509e-01 0.000000000000e+00
          6.952082062530e-02 1.678381162828e-01 0.000000000000e+00
          7.015862631911e-02 1.693779155148e-01 0.000000000000e+00
          7.079643201292e-02 1.709177147467e-01 0.000000000000e+00
          7.143423770673e-02 1.724575139787e-01 0.000000000000e+00
          7.207204340054e-02 1.739973132106e-01 0.000000000000e+00
          7.270984909435e-02 1.755371124426e-01 0.000000000000e+00
          7.334765478816e-02 1.770769116745e-01 0.000000000000e+00
          7.398546048197e-02 1.786167109065e-01 0.000000000000e+00
          7.462326617578e-02 1.801565101384e-01 0.000000000000e+00
          7.526107186959e-02 1.816963093704e-01 0.000000000000e+00
          7.589887756340e-02 1.832361086023e-01 0.000000000000e+00
          7.653668325721e-02 1.847759078343e-01 0.000000000000e+00
          7.717448895102e-02 1.863157070662e-01 0.000000000000e+00
          7.781229464483e-02 1.878555062982e-01 0.000000000000e+00
          7.845010033864e-02 1.893953055301e-01 0.000000000000e+00
          7.908790603245e-02 1.909351047621e-01 0.000000000000e+00
          7.972571172626e-02 1.924749039941e-01 0.000000000000e+00
          8.036351742007e-02 1.940147032260e-01 0.000000000000e+00
          8.100132311388e-02 1.955545024580e-01 0.000000000000e+00
          8.163912880769e-02 1.970943016899e-01 0.000000000000e+00
          8.227693450150e-02 1.986341009219e-01 0.000000000000e+00
          8.291474019531e-02 2.001739001538e-01 0.000000000000e+00
          8.355254588912e-02 2.017136993858e-01 0.000000000000e+00
          8.419035158293e-02 2.032534986177e-01 0.000000000000e+00
          8.482815727674e-02 2.047932978497e-01 0.000000000000e+00
          8.546596297055e-02 2.063330970816e-01 0.000000000000e+00
          8.610376866436e-02 2.078728963136e-01 0.000000000000e+00
          5.079981536213e-02 1.674645597109e-01 0.000000000000e+00
          5.128362312748e-02 1.690594602796e-01 0.000000000000e+00
          5.176743089284e-02 1.706543608483e-01 0.000000000000e+00
          5.225123865819e-02 1.722492614169e-01 0.000000000000e+00
          5.273504642354e-02 1.738441619856e-01 0.000000000000e+00
          5.321885418890e-02 1.754390625543e-01 0.000000000000e+00
          5.370266195425e-02 1.770339631230e-01 0.000000000000e+00
          5.418646971960e-02 1.786288636917e-01 0.000000000000e+00
          5.467027748496e-02 1.802237642603e-01 0.000000000000e+00
          5.515408525031e-02 1.818186648290e-01 0.000000000000e+00
          5.563789301567e-02 1.834135653977e-01 0.000000000000e+00
          5.612170078102e-02 1.850084659664e-01 0.000000000000e+00
          5.660550854637e-02 1.866033665350e-01 0.000000000000e+00
          5.708931631173e-02 1.881982671037e-01 0.000000000000e+00
          5.757312407708e-02 1.897931676724e-01 0.000000000000e+00
          5.805693184243e-02 1.913880682411e-01 0.000000000000e+00
          5.854073960779e-02 1.929829688097e-01 0.000000000000e+00
          5.902454737314e-02 1.945778693784e-01 0.000000000000e+00
          5.950835513849e-02 1.961727699471e-01 0.000000000000e+00
          5.999216290385e-02 1.977676705158e-01 0.000000000000e+00
          6.047597066920e-02 1.993625710844e-01 0.000000000000e+00
          6.095977843456e-02 2.009574716531e-01 0.000000000000e+00
          6.144358619991e-02 2.025523722218e-01 0.000000000000e+00
          6.192739396526e-02 2.041472727905e-01 0.000000000000e+00
          6.241120173062e-02 2.057421733591e-01 0.000000000000e+00
          6.289500949597e-02 2.073370739278e-01 0.000000000000e+00
          6.337881726132e-02 2.089319744965e-01 0.000000000000e+00
          6.386262502668e-02 2.105268750652e-01 0.000000000000e+00
          6.434643279203e-02 2.121217756338e-01 0.000000000000e+00
          6.483024055738e-02 2.137166762025e-01 0.000000000000e+00
          6.531404832274e-02 2.153115767712e-01 0.000000000000e+00
          3.414080286782e-02 1.716374247638e-01 0.000000000000e+00
          3.446595337132e-02 1.732720669044e-01 0.000000000000e+00
          3.479110387482e-02 1.749067090450e-01 0.000000000000e+00
          3.511625437833e-02 1.765413511856e-01 0.000000000000e+00
          3.544140488183e-02 1.781759933262e-01 0.000000000000e+00
          3.576655538533e-02 1.798106354668e-01 0.000000000000e+00
          3.609170588883e-02 1.814452776074e-01 0.000000000000e+00
          3.641685639234e-02 1.830799197480e-01 0.000000000000e+00
          3.674200689584e-02 1.847145618886e-01 0.000000000000e+00
          3.706715739934e-02 1.863492040292e-01 0.000000000000e+00
          3.739230790285e-02 1.879838461699e-01 0.000000000000e+00
          3.771745840635e-02 1.896184883105e-01 0.000000000000e+00
          3.804260890985e-02 1.912531304511e-01 0.000000000000e+00
          3.836775941336e-02 1.928877725917e-01 0.000000000000e+00
          3.869290991686e-02 1.945224147323e-01 0.000000000000e+00
          3.901806042036e-02 1.961570568729e-01 0.000000000000e+00
          3.934321092386e-02 1.977916990135e-01 0.000000000000e+00
          3.966836142737e-02 1.994263411541e-01 0.000000000000e+00
          3.999351193087e-02 2.010609832947e-01 0.000000000000e+00
          4.031866243437e-02 2.026956254353e-01 0.000000000000e+00
          4.064381293788e-02 2.043302675759e-01 0.000000000000e+00
          4.096896344138e-02 2.059649097165e-01 0.000000000000e+00
          4.129411394488e-02 2.075995518571e-01 0.000000000000e+00
          4.161926444839e-02 2.092341939977e-01 0.000000000000e+00
          4.194441495189e-02 2.108688361384e-01 0.000000000000e+00
          4.226956545539e-02 2.125034782790e-01 0.000000000000e+00
          4.259471595889e-02 2.141381204196e-01 0.000000000000e+00
          4.291986646240e-02 2.157727625602e-01 0.000000000000e+00
          4.324501696590e-02 2.174074047008e-01 0.000000000000e+00
          4.357016746940e-02 2.190420468414e-01 0.000000000000e+00
          4.389531797291e-02 2.206766889820e-01 0.000000000000e+00
          1.715299576892e-02 1.741573275408e-01 0.000000000000e+00
          1.731635763338e-02 1.758159687555e-01 0.000000000000e+00
          1.747971949785e-02 1.774746099701e-01 0.000000000000e+00
          1.764308136232e-02 1.791332511848e-01 0.000000000000e+00
          1.780644322678e-02 1.807918923995e-01 0.000000000000e+00
          1.796980509125e-02 1.824505336142e-01 0.000000000000e+00
          1.813316695571e-02 1.841091748288e-01 0.000000000000e+00
          1.829652882018e-02 1.857678160435e-01 0.000000000000e+00
          1.845989068465e-02 1.874264572582e-01 0.000000000000e+00
          1.862325254911e-02 1.890850984729e-01 0.000000000000e+00
          1.878661441358e-02 1.907437396875e-01 0.000000000000e+00
          1.894997627804e-02 1.924023809022e-01 0.000000000000e+00
          1.911333814251e-02 1.940610221169e-01 0.000000000000e+00
          1.927670000697e-02 1.957196633316e-01 0.000000000000e+00
          1.944006187144e-02 1.973783045462e-01 0.000000000000e+00
          1.960342373591e-02 1.990369457609e-01 0.000000000000e+00
          1.976678560037e-02 2.006955869756e-01 0.000000000000e+00
          1.993014746484e-02 2.023542281903e-01 0.000000000000e+00
          2.009350932930e-02 2.040128694049e-01 0.000000000000e+00
          2.025687119377e-02 2.056715106196e-01 0.000000000000e+00
          2.042023305824e-02 2.073301518343e-01 0.000000000000e+00
          2.058359492270e-02 2.089887930490e-01 0.000000000000e+00
          2.074695678717e-02 2.106474342636e-01 0.000000000000e+00
          2.091031865163e-02 2.123060754783e-01 0.000000000000e+00
          2.107368051610e-02 2.139647166930e-01 0.000000000000e+00
          2.123704238057e-02 2.156233579076e-01 0.000000000000e+00
          2.140040424503e-02 2.172819991223e-01 0.000000000000e+00
          2.156376610950e-02 2.189406403370e-01 0.000000000000e+00
          2.172712797396e-02 2.205992815517e-01 0.000000000000e+00
          2.189048983843e-02 2.222579227663e-01 0.000000000000e+00
          2.205385170289e-02 2.239165639810e-01 0.000000000000e+00
          -4.060893083300e-09 1.750000000000e-01 0.000000000000e+00
          -4.099568255522e-09 1.766666666667e-01 0.000000000000e+00
          -4.138243427744e-09 1.783333333333e-01 0.000000000000e+00
          -4.176918599966e-09 1.800000000000e-01 0.000000000000e+00
          -4.215593772188e-09 1.816666666667e-01 0.000000000000e+00
          -4.254268944410e-09 1.833333333333e-01 0.000000000000e+00
          -4.292944116632e-09 1.850000000000e-01 0.000000000000e+00
          -4.331619288854e-09 1.866666666667e-01 0.000000000000e+00
          -4.370294461076e-09 1.883333333333e-01 0.000000000000e+00
          -4.408969633297e-09 1.900000000000e-01 0.000000000000e+00
          -4.447644805519e-09 1.916666666667e-01 0.000000000000e+00
          -4.486319977741e-09 1.933333333333e-01 0.000000000000e+00
          -4.524995149963e-09 1.950000000000e-01 0.000000000000e+00
          -4.563670322185e-09 1.966666666667e-01 0.000000000000e+00
          -4.602345494407e-09 1.983333333333e-01 0.000000000000e+00
          -4.641020666629e-09 2.000000000000e-01 0.000000000000e+00
          -4.679695838851e-09 2.016666666667e-01 0.000000000000e+00
          -4.718371011073e-09 2.033333333333e-01 0.000000000000e+00
          -4.757046183295e-09 2.050000000000e-01 0.000000000000e+00
          -4.795721355517e-09 2.066666666667e-01 0.000000000000e+00
          -4.834396527738e-09 2.083333333333e-01 0.000000000000e+00
          -4.873071699960e-09 2.100000000000e-01 0.000000000000e+00
          -4.911746872182e-09 2.116666666667e-01 0.000000000000e+00
          -4.950422044404e-09 2.133333333333e-01 0.000000000000e+00
          -4.989097216626e-09 2.150000000000e-01 0.000000000000e+00
          -5.027772388848e-09 2.166666666667e-01 0.000000000000e+00
          -5.066447561070e-09 2.183333333333e-01 0.000000000000e+00
          -5.105122733292e-09 2.200000000000e-01 0.000000000000e+00
          -5.143797905514e-09 2.216666666667e-01 0.000000000000e+00
          -5.182473077736e-09 2.233333333333e-01 0.000000000000e+00
          -5.221148249957e-09 2.250000000000e-01 0.000000000000e+00
        </DataArray>
      </Points>
      <Cells>
        <DataArray type="Int64" Name="connectivity" format="ascii">
          31 0 1 32 
          32 1 2 33 
          33 2 3 34 
          34 3 4 35 
          35 4 5 36 
          36 5 6 37 
          37 6 7 38 
          38 7 8 39 
          39 8 9 40 
          40 9 10 41 
          41 10 11 42 
          42 11 12 43 
          43 12 13 44 
          44 13 14 45 
          45 14 15 46 
          46 15 16 47 
          47 16 17 48 
          48 17 18 49 
          49 18 19 50 
          50 19 20 51 
          51 20 21 52 
          52 21 22 53 
          53 22 23 54 
          54 23 24 55 
          55 24 25 56 
          56 25 26 57 
          57 26 27 58 
          58 27 28 59 
          59 28 29 60 
          60 29 30 61 
          62 31 32 63 
          63 32 33 64 
          64 33 34 65 
          65 34 35 66 
          66 35 36 67 
          67 36 37 68 
          68 37 38 69 
          69 38 39 70 
          70 39 40 71 
          71 40 41 72 
          72 41 42 73 
          73 42 43 74 
          74 43 44 75 
          75 44 45 76 
          76 45 46 77 
          77 46 47 78 
          78 47 48 79 
          79 48 49 80 
          80 49 50 81 
          81 50 51 82 
          82 51 52 83 
          83 52 53 84 
          84 53 54 85 
          85 54 55 86 
          86 55 56 87 
          87 56 57 88 
          88 57 58 89 
          89 58 59 90 
          90 59 60 91 
          91 60 61 92 
          93 62 63 94 
          94 63 64 95 
          95 64 65 96 
          96 65 66 97 
          97 66 67 98 
          98 67 68 99 
          99 68 69 100 
          100 69 70 101 
          101 70 71 102 
          102 71 72 103 
          103 72 73 104 
          104 73 74 105 
          105 74 75 106 
          106 75 76 107 
          107 76 77 108 
          108 77 78 109 
          109 78 79 110 
          110 79 80 111 
          111 80 81 112 
          112 81 82 113 
          113 82 83 114 
          114 83 84 115 
          115 84 85 116 
          116 85 86 117 
          117 86 87 118 
          118 87 88 119 
          119 88 89 120 
          120 89 90 121 
          121 90 91 122 
          122 91 92 123 
          124 93 94 125 
          125 94 95 126 
          126 95 96 127 
          127 96 97 128 
          128 97 98 129 
          129 98 99 130 
          130 99 100 131 
          131 100 101 132 
          132 101 102 133 
          133 102 103 134 
          134 103 104 135 
          135 104 105 136 
          136 105 106 137 
          137 106 107 138 
          138 107 108 139 
          139 108 109 140 
          140 109 110 141 
          141 110 111 142 
          142 111 112 143 
          143 112 113 144 
          144 113 114 145 
          145 114 115 146 
          146 115 116 147 
          147 116 117 148 
          148 117 118 149 
          149 118 119 150 
          150 119 120 151 
          151 120 121 152 
          152 121 122 153 
          153 122 123 154 
          155 124 125 156 
          156 125 126 157 
          157 126 127 158 
          158 127 128 159 
          159 128 129 160 
          160 129 130 161 
          161 130 131 162 
          162 131 132 163 
          163 132 133 164 
          164 133 134 165 
          165 134 135 166 
          166 135 136 167 
          167 136 137 168 
          168 137 138 169 
          169 138 139 170 
          170 139 140 171 
          171 140 141 172 
          172 141 142 173 
          173 142 143 174 
          174 143 144 175 
          175 144 145 176 
          176 145 146 177 
          177 146 147 178 
          178 147 148 179 
          179 148 149 180 
          180 149 150 181 
          181 150 151 182 
          182 151 152 183 
          183 152 153 184 
          184 153 154 185 
          186 155 156 187 
          187 156 157 188 
          188 157 158 189 
          189 158 159 190 
          190 159 160 191 
          191 160 161 192 
          192 161 162 193 
          193 162 163 194 
          194 163 164 195 
          195 164 165 196 
          196 165 166 197 
          197 166 167 198 
          198 167 168 199 
          199 168 169 200 
          200 169 170 201 
          201 170 171 202 
          202 171 172 203 
          203 172 173 204 
          204 173 174 205 
          205 174 175 206 
          206 175 176 207 
          207 176 177 208 
          208 177 178 209 
          209 178 179 210 
          210 179 180 211 
          211 180 181 212 
          212 181 182 213 
          213 182 183 214 
          214 183 184 215 
          215 184 185 216 
          217 186 187 218 
          218 187 188 219 
          219 188 189 220 
          220 189 190 221 
          221 190 191 222 
          222 191 192 223 
          223 192 193 224 
          224 193 194 225 
          225 194 195 226 
          226 195 196 227 
          227 196 197 228 
          228 197 198 229 
          229 198 199 230 
          230 199 200 231 
          231 200 201 232 
          232 201 202 233 
          233 202 203 234 
          234 203 204 235 
          235 204 205 236 
          236 205 206 237 
          237 206 207 238 
          238 207 208 239 
          239 208 209 240 
          240 209 210 241 
          241 210 211 242 
          242 211 212 243 
          243 212 213 244 
          244 213 214 245 
          245 214 215 246 
          246 215 216 247 
          248 217 218 249 
          249 218 219 250 
          250 219 220 251 
          251 220 221 252 
          252 221 222 253 
          253 222 223 254 
          254 223 224 255 
          255 224 225 256 
          256 225 226 257 
          257 226 227 258 
          258 227 228 259 
          259 228 229 260 
          260 229 230 261 
          261 230 231 262 
          262 231 232 263 
          263 232 233 264 
          264 233 234 265 
          265 234 235 266 
          266 235 236 267 
          267 236 237 268 
          268 237 238 269 
          269 238 239 270 
          270 239 240 271 
          271 240 241 272 
          272 241 242 273 
          273 242 243 274 
          274 243 244 275 
          275 244 245 276 
          276 245 246 277 
          277 246 247 278 
          279 248 249 280 
          280 249 250 281 
          281 250 251 282 
          282 251 252 283 
          283 252 253 284 
          284 253 254 285 
          285 254 255 286 
          286 255 256 287 
          287 256 257 288 
          288 257 258 289 
          289 258 259 290 
          290 259 260 291 
          291 260 261 292 
          292 261 262 293 
          293 262 263 294 
          294 263 264 295 
          295 264 265 296 
          296 265 266 297 
          297 266 267 298 
          298 267 268 299 
          299 268 269 300 
          300 269 270 301 
          301 270 271 302 
          302 271 272 303 
          303 272 273 304 
          304 273 274 305 
          305 274 275 306 
          306 275 276 307 
          307 276 277 308 
          308 277 278 309 
          310 279 280 311 
          311 280 281 312 
          312 281 282 313 
          313 282 283 314 
          314 283 284 315 
          315 284 285 316 
          316 285 286 317 
          317 286 287 318 
          318 287 288 319 
          319 288 289 320 
          320 289 290 321 
          321 290 291 322 
          322 291 292 323 
          323 292 293 324 
          324 293 294 325 
          325 294 295 326 
          326 295 296 327 
          327 296 297 328 
          328 297 298 329 
          329 298 299 330 
          330 299 300 331 
          331 300 301 332 
          332 301 302 333 
          333 302 303 334 
          334 303 304 335 
          335 304 305 336 
          336 305 306 337 
          337 306 307 338 
          338 307 308 339 
          339 308 309 340 
          341 310 311 342 
          342 311 312 343 
          343 312 313 344 
          344 313 314 345 
          345 314 315 346 
          346 315 316 347 
          347 316 317 348 
          348 317 318 349 
          349 318 319 350 
          350 319 320 351 
          351 320 321 352 
          352 321 322 353 
          353 322 323 354 
          354 323 324 355 
          355 324 325 356 
          356 325 326 357 
          357 326 327 358 
          358 327 328 359 
          359 328 329 360 
          360 329 330 361 
          361 330 331 362 
          362 331 332 363 
          363 332 333 364 
          364 333 334 365 
          365 334 335 366 
          366 335 336 367 
          367 336 337 368 
          368 337 338 369 
          369 338 339 370 
          370 339 340 371 
          372 341 342 373 
          373 342 343 374 
          374 343 344 375 
          375 344 345 376 
          376 345 346 377 
          377 346 347 378 
          378 347 348 379 
          379 348 349 380 
          380 349 350 381 
          381 350 351 382 
          382 351 352 383 
          383 352 353 384 
          384 353 354 385 
          385 354 355 386 
          386 355 356 387 
          387 356 357 388 
          388 357 358 389 
          389 358 359 390 
          390 359 360 391 
          391 360 361 392 
          392 361 362 393 
          393 362 363 394 
          394 363 364 395 
          395 364 365 396 
          396 365 366 397 
          397 366 367 398 
          398 367 368 399 
          399 368 369 400 
          400 369 370 401 
          401 370 371 402 
          403 372 373 404 
          404 373 374 405 
          405 374 375 406 
          406 375 376 407 
          407 376 377 408 
          408 377 378 409 
          409 378 379 410 
          410 379 380 411 
          411 380 381 412 
          412 381 382 413 
          413 382 383 414 
          414 383 384 415 
          415 384 385 416 
          416 385 386 417 
          417 386 387 418 
          418 387 388 419 
          419 388 389 420 
          420 389 390 421 
          421 390 391 422 
          422 391 392 423 
          423 392 393 424 
          424 393 394 425 
          425 394 395 426 
          426 395 396 427 
          427 396 397 428 
          428 397 398 429 
          429 398 399 430 
          430 399 400 431 
          431 400 401 432 
          432 401 402 433 
          434 403 404 435 
          435 404 405 436 
          436 405 406 437 
          437 406 407 438 
          438 407 408 439 
          439 408 409 440 
          440 409 410 441 
          441 410 411 442 
          442 411 412 443 
          443 412 413 444 
          444 413 414 445 
          445 414 415 446 
          446 415 416 447 
          447 416 417 448 
          448 417 418 449 
          449 418 419 450 
          450 419 420 451 
          451 420 421 452 
          452 421 422 453 
          453 422 423 454 
          454 423 424 455 
          455 424 425 456 
          456 425 426 457 
          457 426 427 458 
          458 427 428 459 
          459 428 429 460 
          460 429 430 461 
          461 430 431 462 
          462 431 432 463 
          463 432 433 464 
          465 434 435 466 
          466 435 436 467 
          467 436 437 468 
          468 437 438 469 
          469 438 439 470 
          470 439 440 471 
          471 440 441 472 
          472 441 442 473 
          473 442 443 474 
          474 443 444 475 
          475 444 445 476 
          476 445 446 477 
          477 446 447 478 
          478 447 448 479 
          479 448 449 480 
          480 449 450 481 
          481 450 451 482 
          482 451 452 483 
          483 452 453 484 
          484 453 454 485 
          485 454 455 486 
          486 455 456 487 
          487 456 457 488 
          488 457 458 489 
          489 458 459 490 
          490 459 460 491 
          491 460 461 492 
          492 461 462 493 
          493 462 463 494 
          494 463 464 495 
          496 465 466 497 
          497 466 467 498 
          498 467 468 499 
          499 468 469 500 
          500 469 470 501 
          501 470 471 502 
          502 471 472 503 
          503 472 473 504 
          504 473 474 505 
          505 474 475 506 
          506 475 476 507 
          507 476 477 508 
          508 477 478 509 
          509 478 479 510 
          510 479 480 511 
          511 480 481 512 
          512 481 482 513 
          513 482 483 514 
          514 483 484 515 
          515 484 485 516 
          516 485 486 517 
          517 486 487 518 
          518 487 488 519 
          519 488 489 520 
          520 489 490 521 
          521 490 491 522 
          522 491 492 523 
          523 492 493 524 
          524 493 494 525 
          525 494 495 526 
        </DataArray>
        <DataArray type="Int64" Name="offsets" format="ascii">
          4 8 12 16 20 24 28 32 36 40 44 48 52 56 60 64 68 72 76 80 84 88 92 96 100 104 108 112 116 120 124 128 132 136 140 144 148 152 156 160 164 168 172 176 180 184 188 192 196 200 204 208 212 216 220 224 228 232 236 240 244 248 252 256 260 264 268 272 276 280 284 288 292 296 300 304 308 312 316 320 324 328 332 336 340 344 348 352 356 360 364 368 372 376 380 384 388 392 396 400 404 408 412 416 420 424 428 432 436 440 444 448 452 456 460 464 468 472 476 480 484 488 492 496 500 504 508 512 516 520 524 528 532 536 540 544 548 552 556 560 564 568 572 576 580 584 588 592 596 600 604 608 612 616 620 624 628 632 636 640 644 648 652 656 660 664 668 672 676 680 684 688 692 696 700 704 708 712 716 720 724 728 732 736 740 744 748 752 756 760 764 768 772 776 780 784 788 792 796 800 804 808 812 816 820 824 828 832 836 840 844 848 852 856 860 864 868 872 876 880 884 888 892 896 900 904 908 912 916 920 924 928 932 936 940 944 948 952 956 960 964 968 972 976 980 984 988 992 996 1000 1004 1008 1012 1016 1020 1024 1028 1032 1036 1040 1044 1048 1052 1056 1060 1064 1068 1072 1076 1080 1084 1088 1092 1096 1100 1104 1108 1112 1116 1120 1124 1128 1132 1136 1140 1144 1148 1152 1156 1160 1164 1168 1172 1176 1180 1184 1188 1192 1196 1200 1204 1208 1212 1216 1220 1224 1228 1232 1236 1240 1244 1248 1252 1256 1260 1264 1268 1272 1276 1280 1284 1288 1292 1296 1300 1304 1308 1312 1316 1320 1324 1328 1332 1336 1340 1344 1348 1352 1356 1360 1364 1368 1372 1376 1380 1384 1388 1392 1396 1400 1404 1408 1412 1416 1420 1424 1428 1432 1436 1440 1444 1448 1452 1456 1460 1464 1468 1472 1476 1480 1484 1488 1492 1496 1500 1504 1508 1512 1516 1520 1524 1528 1532 1536 1540 1544 1548 1552 1556 1560 1564 1568 1572 1576 1580 1584 1588 1592 1596 1600 1604 1608 1612 1616 1620 1624 1628 1632 1636 1640 1644 1648 1652 1656 1660 1664 1668 1672 1676 1680 1684 1688 1692 1696 1700 1704 1708 1712 1716 1720 1724 1728 1732 1736 1740 1744 1748 1752 1756 1760 1764 1768 1772 1776 1780 1784 1788 1792 1796 1800 1804 1808 1812 1816 1820 1824 1828 1832 1836 1840 1844 1848 1852 1856 1860 1864 1868 1872 1876 1880 1884 1888 1892 1896 1900 1904 1908 1912 1916 1920 
        </DataArray>
        <DataArray type="UInt8" Name="types" format="ascii">
          9 9 9 9 9 9 9 9 9 9 9 9 9 9 9 9 9 9 9 9 9 9 9 9 9 9 9 9 9 9 9 9 9 9 9 9 9 9 9 9 9 9 9 9 9 9 9 9 9 9 9 9 9 9 9 9 9 9 9 9 9 9 9 9 9 9 9 9 9 9 9 9 9 9 9 9 9 9 9 9 9 9 9 9 9 9 9 9 9 9 9 9 9 9 9 9 9 9 9 9 9 9 9 9 9 9 9 9 9 9 9 9 9 9 9 9 9 9 9 9 9 9 9 9 9 9 9 9 9 9 9 9 9 9 9 9 9 9 9 9 9 9 9 9 9 9 9 9 9 9 9 9 9 9 9 9 9 9 9 9 9 9 9 9 9 9 9 9 9 9 9 9 9 9 9 9 9 9 9 9 9 9 9 9 9 9 9 9 9 9 9 9 9 9 9 9 9 9 9 9 9 9 9 9 9 9 9 9 9 9 9 9 9 9 9 9 9 9 9 9 9 9 9 9 9 9 9 9 9 9 9 9 9 9 9 9 9 9 9 9 9 9 9 9 9 9 9 9 9 9 9 9 9 9 9 9 9 9 9 9 9 9 9 9 9 9 9 9 9 9 9 9 9 9 9 9 9 9 9 9 9 9 9 9 9 9 9 9 9 9 9 9 9 9 9 9 9 9 9 9 9 9 9 9 9 9 9 9 9 9 9 9 9 9 9 9 9 9 9 9 9 9 9 9 9 9 9 9 9 9 9 9 9 9 9 9 9 9 9 9 9 9 9 9 9 9 9 9 9 9 9 9 9 9 9 9 9 9 9 9 9 9 9 9 9 9 9 9 9 9 9 9 9 9 9 9 9 9 9 9 9 9 9 9 9 9 9 9 9 9 9 9 9 9 9 9 9 9 9 9 9 9 9 9 9 9 9 9 9 9 9 9 9 9 9 9 9 9 9 9 9 9 9 9 9 9 9 9 9 9 9 9 9 9 9 9 9 9 9 9 9 9 9 9 9 9 9 9 9 9 9 9 9 9 9 9 9 9 9 9 9 9 9 9 9 9 9 9 9 9 9 9 9 9 9 9 9 9 9 9 
        </DataArray>
      </Cells>
      <PointData Scalars="DISPLACEMENT_X1">
        <DataArray type="Float64" Name="STRESS_1" format="ascii">
          -1.039995605535e+03 -6.415492491461e+03 -1.156806446721e+04 -1.651887576853e+04 -2.128127766526e+04 -2.586639875646e+04 -3.028390220459e+04 -3.454238298570e+04 -3.864961542151e+04 -4.261271958366e+04 -4.643827763112e+04 -5.013241723401e+04 -5.370087306169e+04 -5.714903274920e+04 -6.048197176824e+04 -6.370448048633e+04 -6.682108583943e+04 -6.983606848979e+04 -7.275347602443e+04 -7.557713283637e+04 -7.831064728150e+04 -8.095741582706e+04 -8.352062372524e+04 -8.600324171375e+04 -8.840801892752e+04 -9.073747184877e+04 -9.299387064444e+04 -9.517923006196e+04 -9.729533383420e+04 -9.934388897946e+04 -1.013278502910e+05 -1.040335827752e+03 -6.415639785740e+03 -1.156814279552e+04 -1.651892233101e+04 -2.128130748681e+04 -2.586641910155e+04 -3.028391685487e+04 -3.454239411063e+04 -3.864962434386e+04 -4.261272712358e+04 -4.643828418228e+04 -5.013242300227e+04 -5.370087824773e+04 -5.714903747193e+04 -6.048197600681e+04 -6.370448411057e+04 -6.682108878751e+04 -6.983607072324e+04 -7.275347751820e+04 -7.557713347709e+04 -7.831064695517e+04 -8.095741439143e+04 -8.352062101075e+04 -8.600323753401e+04 -8.840801324728e+04 -9.073746489145e+04 -9.299386301358e+04 -9.517922307914e+04 -9.729532986152e+04 -9.934389066813e+04 -1.013278545897e+05 -1.040735048100e+03 -6.415792276982e+03 -1.156822180076e+04 -1.651897208007e+04 -2.128134190620e+04 -2.586644429708e+04 -3.028393609581e+04 -3.454240941836e+04 -3.864963692536e+04 -4.261273786796e+04 -4.643829373519e+04 -5.013243155693e+04 -5.370088585336e+04 -5.714904395604e+04 -6.048198154091e+04 -6.370448843604e+04 -6.682109192734e+04 -6.983607220531e+04 -7.275347749080e+04 -7.557713145489e+04 -7.831064289996e+04 -8.095740742383e+04 -8.352061089162e+04 -8.600322316741e+04 -8.840799390404e+04 -9.073743875445e+04 -9.299382854423e+04 -9.517917718226e+04 -9.729526777859e+04 -9.934380111519e+04 -1.013277135031e+05 -1.041436836693e+03 -6.416059263603e+03 -1.156835838915e+04 -1.651905619645e+04 -2.128139876082e+04 -2.586648441091e+04 -3.028396554090e+04 -3.454243175460e+04 -3.864965474778e+04 -4.261275243115e+04 -4.643830569877e+04 -5.013244149532e+04 -5.370089413249e+04 -5.714905092140e+04 -6.048198672848e+04 -6.370449205979e+04 -6.682109349736e+04 -6.983607194794e+04 -7.275347429443e+04 -7.557712532435e+04 -7.831063272004e+04 -8.095739314095e+04 -8.352059066351e+04 -8.600319616660e+04 -8.840795783282e+04 -9.073739203384e+04 -9.299376716533e+04 -9.517909638211e+04 -9.729515793469e+04 -9.934364333576e+04 -1.013274653425e+05 -1.042502447237e+03 -6.416462516624e+03 -1.156856117888e+04 -1.651917796565e+04 -2.128147746462e+04 -2.586653717906e+04 -3.028400126490e+04 -3.454245651701e+04 -3.864967194293e+04 -4.261276465967e+04 -4.643831414157e+04 -5.013244717686e+04 -5.370089753980e+04 -5.714905244253e+04 -6.048198635541e+04 -6.370448949824e+04 -6.682108857023e+04 -6.983606414999e+04 -7.275346320457e+04 -7.557710992577e+04 -7.831061223433e+04 -8.095736618374e+04 -8.352055589807e+04 -8.600315131491e+04 -8.840790037043e+04 -9.073731819974e+04 -9.299367193225e+04 -9.517897169523e+04 -9.729499000949e+04 -9.934340255300e+04 -1.013270884128e+05 -1.044033837954e+03 -6.417038036831e+03 -1.156884584665e+04 -1.651934363807e+04 -2.128157972765e+04 -2.586660007395e+04 -3.028403911664e+04 -3.454247753629e+04 -3.864968179977e+04 -4.261276660469e+04 -4.643831132913e+04 -5.013244095477e+04 -5.370088875466e+04 -5.714904082265e+04 -6.048197246908e+04 -6.370447316515e+04 -6.682106975291e+04 -6.983604181814e+04 -7.275343700980e+04 -7.557707856064e+04 -7.831057462520e+04 -8.095732008532e+04 -8.352049962085e+04 -8.600308154735e+04 -8.840781337810e+04 -9.073720790323e+04 -9.299353149212e+04 -9.517878971824e+04 -9.729474709634e+04 -9.934305505668e+04 -1.013265465120e+05 -1.046196137238e+03 -6.417845359386e+03 -1.156923794740e+04 -1.651956508725e+04 -2.128170917742e+04 -2.586667269110e+04 -3.028407438739e+04 -3.454248835673e+04 -3.864967636472e+04 -4.261275061013e+04 -4.643828794536e+04 -5.013241275706e+04 -5.370085710253e+04 -5.714900686116e+04 -6.048193591518e+04 -6.370443408682e+04 -6.682102741510e+04 -6.983599611317e+04 -7.275338646159e+04 -7.557702224322e+04 -7.831051015888e+04 -8.095724561666e+04 -8.352041123354e+04 -8.600297551116e+04 -8.840768351272e+04 -9.073704740449e+04 -9.299332917343e+04 -9.517853001361e+04 -9.729440120353e+04 -9.934256256802e+04 -1.013257811943e+05 -1.049260774090e+03 -6.418981440882e+03 -1.156978093179e+04 -1.651986289982e+04 -2.128187458743e+04 -2.586675605307e+04 -3.028410404162e+04 -3.454248232237e+04 -3.864964665668e+04 -4.261270544330e+04 -4.643823258563e+04 -5.013235067659e+04 -5.370079049865e+04 -5.714893716166e+04 -6.048186379909e+04 -6.370435950605e+04 -6.682094992254e+04 -6.983591458932e+04 -7.275329952810e+04 -7.557692778736e+04 -7.831040593669e+04 -8.095712799685e+04 -8.352027579042e+04 -8.600281596475e+04 -8.840749233702e+04 -9.073681379797e+04 -9.299303837701e+04 -9.517815887525e+04 -9.729390953500e+04 -9.934186281410e+04 -1.013246966628e+05 -1.053689910955e+03 -6.420611016613e+03 -1.157054934767e+04 -1.652027564884e+04 -2.128209468877e+04 -2.586685576554e+04 -3.028412499122e+04 -3.454245096755e+04 -3.864958105190e+04 -4.261261696675e+04 -4.643812945225e+04 -5.013223797461e+04 -5.370067205932e+04 -5.714881451718e+04 -6.048173821421e+04 -6.370423104748e+04 -6.682081853845e+04 -6.983577861221e+04 -7.275315713082e+04 -7.557677603988e+04 -7.831024151209e+04 -8.095694565602e+04 -8.352006915704e+04 -8.600257628654e+04 -8.840720858997e+04 -9.073647040873e+04 -9.299261397759e+04 -9.517762040242e+04 -9.729319868402e+04 -9.934085102897e+04 -1.013231300507e+05 -1.060316608830e+03 -6.423026873449e+03 -1.157167499387e+04 -1.652087073882e+04 -2.128240157682e+04 -2.586698329492e+04 -3.028413480107e+04 -3.454238254421e+04 -3.864946012224e+04 -4.261246211161e+04 -4.643795270579e+04 -5.013204771147e+04 -5.370047279004e+04 -5.714861005069e+04 -6.048152990487e+04 -6.370401949475e+04 -6.682060227837e+04 -6.983555675089e+04 -7.275292687997e+04 -7.557653382558e+04 -7.830998107590e+04 -8.095666035537e+04 -8.351974934698e+04 -8.600220986063e+04 -8.840677796469e+04 -9.073595320989e+04 -9.299197794428e+04 -9.517681687229e+04 -9.729213864752e+04 -9.933933979943e+04 -1.013207888006e+05 -1.070766352465e+03 -6.426784911877e+03 -1.157339963937e+04 -1.652177203627e+04 -2.128285705414e+04 -2.586715884919e+04 -3.028412630400e+04 -3.454225151708e+04 -3.864924818090e+04 -4.261219685799e+04 -4.643765341131e+04 -5.013172662598e+04 -5.370013838716e+04 -5.714826690215e+04 -6.048118122736e+04 -6.370366580967e+04 -6.682024305092e+04 -6.983518894719e+04 -7.275254703690e+04 -7.557613592783e+04 -7.830955756083e+04 -8.095619969930e+04 -8.351923728153e+04 -8.600162640368e+04 -8.840609736089e+04 -9.073513976252e+04 -9.299098298145e+04 -9.517556372902e+04 -9.729048568116e+04 -9.933696892493e+04 -1.013171045133e+05 -1.088569686666e+03 -6.433059654933e+03 -1.157619493152e+04 -1.652320998626e+04 -2.128357400211e+04 -2.586741813877e+04 -3.028407850912e+04 -3.454199837392e+04 -3.864885980817e+04 -4.261172057792e+04 -4.643712007545e+04 -5.013115746469e+04 -5.369954716648e+04 -5.714766211619e+04 -6.048056682810e+04 -6.370304387031e+04 -6.681961275324e+04 -6.983454686822e+04 -7.275188618580e+04 -7.557544738605e+04 -7.830882824030e+04 -8.095541133591e+04 -8.351836420701e+04 -8.600063647814e+04 -8.840494911793e+04 -9.073377879336e+04 -9.298933011978e+04 -9.517348792894e+04 -9.728773014206e+04 -9.933296885792e+04 -1.013108508099e+05 -1.122539887677e+03 -6.444830593020e+03 -1.158109516543e+04 -1.652555951209e+04 -2.128469844112e+04 -2.586779656736e+04 -3.028394239838e+04 -3.454149739799e+04 -3.864810565147e+04 -4.261079795502e+04 -4.643609107923e+04 -5.013006456837e+04 -5.369841813809e+04 -5.714651375073e+04 -6.047940788342e+04 -6.370187611250e+04 -6.681843297679e+04 -6.983334693129e+04 -7.275065264798e+04 -7.557415995110e+04 -7.830746047855e+04 -8.095393047619e+04 -8.351673100738e+04 -8.599880275369e+04 -8.840285354241e+04 -9.073133190103e+04 -9.298637895686e+04 -9.516974306044e+04 -9.728263372491e+04 -9.932542882186e+04 -1.012989894837e+05 -1.198135943823e+03 -6.472446341418e+03 -1.159191725827e+04 -1.652951893549e+04 -2.128574109022e+04 -2.586754753802e+04 -3.028304584478e+04 -3.454020038019e+04 -3.864651323316e+04 -4.260897402296e+04 -4.643408966203e+04 -5.012793440100e+04 -5.369619944400e+04 -5.714423526933e+04 -6.047708499162e+04 -6.369951110105e+04 -6.681601673847e+04 -6.983086213403e+04 -7.274807660701e+04 -7.557146782931e+04 -7.830462713764e+04 -8.095092923131e+04 -8.351352372539e+04 -8.599531660390e+04 -8.839893665428e+04 -9.072668272291e+04 -9.298045077033e+04 -9.516164600499e+04 -9.727105931391e+04 -9.930844946822e+04 -1.012727507197e+05 -1.386509335692e+03 -6.564683933565e+03 -1.164163601726e+04 -1.655236841666e+04 -2.129208539772e+04 -2.586482828354e+04 -3.027613143867e+04 -3.453192359181e+04 -3.863830281057e+04 -4.260139445312e+04 -4.642723194402e+04 -5.012167032303e+04 -5.369033312118e+04 -5.713858532647e+04 -6.047152320757e+04 -6.369397341686e+04 -6.681049598407e+04 -6.982538748879e+04 -7.274268209424e+04 -7.556614808308e+04 -7.829927798557e+04 -8.094527206789e+04 -8.350701717661e+04 -8.598706571745e+04 -8.838762735010e+04 -9.071059907175e+04 -9.295767187944e+04 -9.513052710680e+04 -9.723091910595e+04 -9.925937619730e+04 -1.012069489527e+05 -1.371364233141e+03 -6.847687648087e+03 -1.201147886998e+04 -1.691315482371e+04 -2.160293324590e+04 -2.611321805689e+04 -3.046324631599e+04 -3.466477968697e+04 -3.872569747764e+04 -4.265193576453e+04 -4.644847101154e+04 -5.011979886086e+04 -5.367015637683e+04 -5.710361619778e+04 -6.042411887961e+04 -6.363547638882e+04 -6.674136500655e+04 -6.974531647888e+04 -7.265071401654e+04 -7.546079696582e+04 -7.817868070751e+04 -8.080740035425e+04 -8.334999346648e+04 -8.580964348895e+04 -8.818991950755e+04 -9.049515755914e+04 -9.273101511666e+04 -9.490509163563e+04 -9.702686614980e+04 -9.910339946703e+04 -1.011107179625e+05 -5.769078248927e+03 -4.323294178229e+03 -8.652959693954e+03 -1.396723303745e+04 -1.932491874863e+04 -2.447174196701e+04 -2.935566328292e+04 -3.398386536843e+04 -3.837881310813e+04 -4.256461070096e+04 -4.656305887498e+04 -5.039289043569e+04 -5.407000656390e+04 -5.760797439353e+04 -6.101853634728e+04 -6.431206162634e+04 -6.749792223463e+04 -7.058480082381e+04 -7.358093181822e+04 -7.649428524437e+04 -7.933267708859e+04 -8.210376549649e+04 -8.481482683162e+04 -8.747209050833e+04 -9.007909566860e+04 -9.263280662223e+04 -9.511437082824e+04 -9.746661056390e+04 -9.953744008534e+04 -1.009327437007e+05 -1.003495698322e+05 
        </DataArray>
        <DataArray type="Float64" Name="STRESS_2" format="ascii">
          -2.853298584784e+05 -2.827007887841e+05 -2.801604917012e+05 -2.777071619914e+05 -2.753385644775e+05 -2.730522138758e+05 -2.708453763292e+05 -2.687151783011e+05 -2.666586991163e+05 -2.646730344382e+05 -2.627553368601e+05 -2.609028405908e+05 -2.591128756252e+05 -2.573828747216e+05 -2.557103755298e+05 -2.540930195443e+05 -2.525285491480e+05 -2.510148031326e+05 -2.495497110026e+05 -2.481312863002e+05 -2.467576192576e+05 -2.454268685051e+05 -2.441372516056e+05 -2.428870339814e+05 -2.416745160574e+05 -2.404980174828e+05 -2.393558559976e+05 -2.382463140643e+05 -2.371675736787e+05 -2.361175562847e+05 -2.350935628150e+05 -2.853300201794e+05 -2.827008163541e+05 -2.801604861996e+05 -2.777071436030e+05 -2.753385385771e+05 -2.730521824100e+05 -2.708453402450e+05 -2.687151382159e+05 -2.666586554885e+05 -2.646729876165e+05 -2.627552870558e+05 -2.609027879571e+05 -2.591128203314e+05 -2.573828169081e+05 -2.557103152683e+05 -2.540929568433e+05 -2.525284840390e+05 -2.510147356617e+05 -2.495496412260e+05 -2.481312142268e+05 -2.467575448738e+05 -2.454267917684e+05 -2.441371724419e+05 -2.428869522676e+05 -2.416744316300e+05 -2.404979300719e+05 -2.393557650115e+05 -2.382462180775e+05 -2.371674687205e+05 -2.361174301817e+05 -2.350933737692e+05 -2.853305198042e+05 -2.827009035058e+05 -2.801604720166e+05 -2.777070903448e+05 -2.753384628151e+05 -2.730520901196e+05 -2.708452343770e+05 -2.687150206462e+05 -2.666585275023e+05 -2.646728502298e+05 -2.627551410739e+05 -2.609026338917e+05 -2.591126585734e+05 -2.573826476876e+05 -2.557101389558e+05 -2.540927735511e+05 -2.525282939973e+05 -2.510145388021e+05 -2.495494377764e+05 -2.481310040639e+05 -2.467573281049e+05 -2.454265680407e+05 -2.441369417177e+05 -2.428867140259e+05 -2.416741854921e+05 -2.404976749048e+05 -2.393554992312e+05 -2.382459372646e+05 -2.371671608417e+05 -2.361170573728e+05 -2.350928073514e+05 -2.853313982822e+05 -2.827010605319e+05 -2.801604538079e+05 -2.777070059983e+05 -2.753383415138e+05 -2.730519420389e+05 -2.708450647499e+05 -2.687148326466e+05 -2.666583235005e+05 -2.646726317309e+05 -2.627549091600e+05 -2.609023894975e+05 -2.591124024397e+05 -2.573823804847e+05 -2.557098608685e+05 -2.540924850594e+05 -2.525279951548e+05 -2.510142300167e+05 -2.495491187260e+05 -2.481306749821e+05 -2.467569885864e+05 -2.454262182181e+05 -2.441365807521e+05 -2.428863415771e+05 -2.416738003380e+05 -2.404972759119e+05 -2.393550829494e+05 -2.382454963329e+05 -2.371666735018e+05 -2.361164576929e+05 -2.350918692184e+05 -2.853327343401e+05 -2.827013077442e+05 -2.801604403478e+05 -2.777068974286e+05 -2.753381815232e+05 -2.730517463062e+05 -2.708448406880e+05 -2.687145851222e+05 -2.666580555632e+05 -2.646723458031e+05 -2.627546067646e+05 -2.609020719489e+05 -2.591120706638e+05 -2.573820352762e+05 -2.557095027471e+05 -2.540921143247e+05 -2.525276121125e+05 -2.510138347593e+05 -2.495487113616e+05 -2.481302552606e+05 -2.467565563412e+05 -2.454257729243e+05 -2.441361218912e+05 -2.428858680870e+05 -2.416733108848e+05 -2.404967680373e+05 -2.393545519722e+05 -2.382449306692e+05 -2.371660406405e+05 -2.361156571353e+05 -2.350905581969e+05 -2.853346607736e+05 -2.827016796626e+05 -2.801604465678e+05 -2.777067748273e+05 -2.753379927555e+05 -2.730515130126e+05 -2.708445737712e+05 -2.687142908157e+05 -2.666577382854e+05 -2.646720084242e+05 -2.627542519130e+05 -2.609017011800e+05 -2.591116851686e+05 -2.573816355367e+05 -2.557090895995e+05 -2.540916881818e+05 -2.525271734363e+05 -2.510133834048e+05 -2.495482474538e+05 -2.481297783949e+05 -2.467560662575e+05 -2.454252687279e+05 -2.441356029177e+05 -2.428853327302e+05 -2.416727571416e+05 -2.404961920320e+05 -2.393539472026e+05 -2.382442806334e+05 -2.371652989767e+05 -2.361146791321e+05 -2.350888519006e+05 -2.853373947336e+05 -2.827022332170e+05 -2.801604954641e+05 -2.777066525832e+05 -2.753377867447e+05 -2.730512536598e+05 -2.708442755308e+05 -2.687139626612e+05 -2.666573860079e+05 -2.646716361735e+05 -2.627538623262e+05 -2.609012964480e+05 -2.591112667247e+05 -2.573812046117e+05 -2.557086465965e+05 -2.540912336181e+05 -2.525267073428e+05 -2.510129061131e+05 -2.495477585522e+05 -2.481292777286e+05 -2.467555528543e+05 -2.454247418772e+05 -2.441350608160e+05 -2.428847736182e+05 -2.416721776906e+05 -2.404955876791e+05 -2.393533079686e+05 -2.382435836035e+05 -2.371644781964e+05 -2.361135314736e+05 -2.350866831158e+05 -2.853412932323e+05 -2.827030602374e+05 -2.801606220091e+05 -2.777065489784e+05 -2.753375761009e+05 -2.730509784553e+05 -2.708439558972e+05 -2.687136105504e+05 -2.666570093154e+05 -2.646712404018e+05 -2.627534511873e+05 -2.609008725226e+05 -2.591108317916e+05 -2.573807599760e+05 -2.557081931191e+05 -2.540907717074e+05 -2.525262371341e+05 -2.510124273630e+05 -2.495472708830e+05 -2.481287803562e+05 -2.467550448963e+05 -2.454242216949e+05 -2.441345263328e+05 -2.428842216899e+05 -2.416716041858e+05 -2.404949855122e+05 -2.393526636348e+05 -2.382428642126e+05 -2.371635911279e+05 -2.361121889834e+05 -2.350839026081e+05 -2.853469585098e+05 -2.827043116178e+05 -2.801608793595e+05 -2.777064881426e+05 -2.753373731917e+05 -2.730506936373e+05 -2.708436178794e+05 -2.687132362141e+05 -2.666566099249e+05 -2.646708231788e+05 -2.627530213574e+05 -2.609004334499e+05 -2.591103860640e+05 -2.573803088869e+05 -2.557077377337e+05 -2.540903123930e+05 -2.525257741802e+05 -2.510119601991e+05 -2.495467988249e+05 -2.481283021175e+05 -2.467545590009e+05 -2.454237256708e+05 -2.441340170607e+05 -2.428836946511e+05 -2.416710532098e+05 -2.404944003240e+05 -2.393520247394e+05 -2.382421246030e+05 -2.371626179155e+05 -2.361105678198e+05 -2.350802144923e+05 -2.853554562490e+05 -2.827062438842e+05 -2.801613496981e+05 -2.777064984616e+05 -2.753371835784e+05 -2.730503936167e+05 -2.708432494767e+05 -2.687128241757e+05 -2.666561700011e+05 -2.646703665784e+05 -2.627525554262e+05 -2.608999633570e+05 -2.591099147232e+05 -2.573798386665e+05 -2.557072696302e+05 -2.540898469975e+05 -2.525253109583e+05 -2.510114988636e+05 -2.495463380745e+05 -2.481278402567e+05 -2.467540929046e+05 -2.454232519938e+05 -2.441335308795e+05 -2.428831896510e+05 -2.416705195020e+05 -2.404938228702e+05 -2.393513741607e+05 -2.382413316274e+05 -2.371614854185e+05 -2.361084807991e+05 -2.350750507729e+05 -2.853688100011e+05 -2.827093184993e+05 -2.801621650069e+05 -2.777066109477e+05 -2.753369956241e+05 -2.730500436177e+05 -2.708428030744e+05 -2.687123195893e+05 -2.666556322220e+05 -2.646698121434e+05 -2.627519958604e+05 -2.608994060422e+05 -2.591093647329e+05 -2.573792987850e+05 -2.557067417679e+05 -2.540893315382e+05 -2.525248076630e+05 -2.510110061152e+05 -2.495458539904e+05 -2.481273616034e+05 -2.467536156764e+05 -2.454227701543e+05 -2.441330369780e+05 -2.428826730088e+05 -2.416699652392e+05 -2.404932065832e+05 -2.393506503997e+05 -2.382403928946e+05 -2.371600279680e+05 -2.361055448394e+05 -2.350672907232e+05 -2.853912709908e+05 -2.827144440752e+05 -2.801635542748e+05 -2.777068526732e+05 -2.753367468876e+05 -2.730495333513e+05 -2.708421420821e+05 -2.687115733929e+05 -2.666548425706e+05 -2.646690063738e+05 -2.627511917895e+05 -2.608986159694e+05 -2.591085967124e+05 -2.573785578230e+05 -2.557060301268e+05 -2.540886501161e+05 -2.525241555998e+05 -2.510103811290e+05 -2.495452519469e+05 -2.481267774486e+05 -2.467530423693e+05 -2.454221981343e+05 -2.441324525714e+05 -2.428820579165e+05 -2.416692930062e+05 -2.404924360872e+05 -2.393497060609e+05 -2.382391013561e+05 -2.371578913091e+05 -2.361009517079e+05 -2.350545432156e+05 -2.854331624726e+05 -2.827236925270e+05 -2.801659398280e+05 -2.777072162897e+05 -2.753362450489e+05 -2.730485576284e+05 -2.708408941132e+05 -2.687101792473e+05 -2.666533841133e+05 -2.646675365789e+05 -2.627497447546e+05 -2.608972130276e+05 -2.591072510245e+05 -2.573772770101e+05 -2.557048179877e+05 -2.540875071663e+05 -2.525230800672e+05 -2.510093689336e+05 -2.495442964631e+05 -2.481258683703e+05 -2.467521652642e+05 -2.454213329010e+05 -2.441315715014e+05 -2.428811226803e+05 -2.416682520696e+05 -2.404912174607e+05 -2.393481882849e+05 -2.382369930176e+05 -2.371542829757e+05 -2.360927740130e+05 -2.350309929633e+05 -2.855250285914e+05 -2.827434656988e+05 -2.801701659110e+05 -2.777072820049e+05 -2.753347482249e+05 -2.730462043619e+05 -2.708380046885e+05 -2.687069766511e+05 -2.666500378385e+05 -2.646641705064e+05 -2.627464443355e+05 -2.608940339479e+05 -2.591042272141e+05 -2.573744272524e+05 -2.557021502921e+05 -2.540850215147e+05 -2.525207695903e+05 -2.510072201746e+05 -2.495422884259e+05 -2.481239713546e+05 -2.467503396618e+05 -2.454195290171e+05 -2.441297305385e+05 -2.428791799267e+05 -2.416661390206e+05 -2.404888473524e+05 -2.393453673388e+05 -2.382330794494e+05 -2.371470689668e+05 -2.360751017196e+05 -2.349796967741e+05 -2.857732534870e+05 -2.828063378227e+05 -2.801835246709e+05 -2.777055944851e+05 -2.753281132420e+05 -2.730376828640e+05 -2.708286216759e+05 -2.686971663946e+05 -2.666400524747e+05 -2.646541904760e+05 -2.627366075789e+05 -2.608844451346e+05 -2.590949628100e+05 -2.573655398778e+05 -2.556936730257e+05 -2.540769716780e+05 -2.525131517527e+05 -2.510000284850e+05 -2.495355088992e+05 -2.481175839391e+05 -2.467443198422e+05 -2.454138481164e+05 -2.441243519164e+05 -2.428740408408e+05 -2.416610917184e+05 -2.404834929664e+05 -2.393386182756e+05 -2.382220419693e+05 -2.371242312701e+05 -2.360212805531e+05 -2.348432862903e+05 -2.868291868275e+05 -2.832119868680e+05 -2.803352015945e+05 -2.777430454404e+05 -2.753099754385e+05 -2.729907086913e+05 -2.707660008608e+05 -2.686258811632e+05 -2.665640391088e+05 -2.645757861883e+05 -2.626572532935e+05 -2.608050472145e+05 -2.590160901666e+05 -2.572875368984e+05 -2.556167269515e+05 -2.540011533413e+05 -2.524384395239e+05 -2.509263197076e+05 -2.494626197017e+05 -2.480452345044e+05 -2.466720980427e+05 -2.453411358594e+05 -2.440501834016e+05 -2.427968319796e+05 -2.415781211184e+05 -2.403898910404e+05 -2.392253542637e+05 -2.380717989925e+05 -2.369026584710e+05 -2.356293740009e+05 -2.341326305939e+05 -2.790973514609e+05 -2.791278712797e+05 -2.783628100595e+05 -2.769882796465e+05 -2.752957428022e+05 -2.734405303660e+05 -2.715101598423e+05 -2.695555756030e+05 -2.676096650678e+05 -2.656912621306e+05 -2.638118997351e+05 -2.619785071196e+05 -2.601950792246e+05 -2.584637444490e+05 -2.567854682623e+05 -2.551605354174e+05 -2.535888956849e+05 -2.520704315684e+05 -2.506051857044e+05 -2.491935857820e+05 -2.478366996309e+05 -2.465365646326e+05 -2.452966554247e+05 -2.441226128478e+05 -2.430229330242e+05 -2.420111835481e+05 -2.411113860733e+05 -2.403641778626e+05 -2.398444215144e+05 -2.396997381930e+05 -2.401848430148e+05 
        </DataArray>
        <DataArray type="Float64" Name="STRESS_3" format="ascii">
          -2.858704095810e+05 -2.832207717538e+05 -2.806671804327e+05 -2.782015393888e+05 -2.758207784672e+05 -2.735223612521e+05 -2.713036242463e+05 -2.691617603171e+05 -2.670938942024e+05 -2.650971489606e+05 -2.631686917179e+05 -2.613057625592e+05 -2.595056917044e+05 -2.577659085747e+05 -2.560839454238e+05 -2.544574373522e+05 -2.528841201485e+05 -2.513618263960e+05 -2.498884803523e+05 -2.484620918041e+05 -2.470807493159e+05 -2.457426125150e+05 -2.444459033490e+05 -2.431888956905e+05 -2.419699027227e+05 -2.407872590996e+05 -2.396392896054e+05 -2.385242372385e+05 -2.374400647396e+05 -2.363838491005e+05 -2.353494937736e+05 -2.858705853047e+05 -2.832208394707e+05 -2.806672396393e+05 -2.782015990511e+05 -2.758208362650e+05 -2.735224147320e+05 -2.713036720066e+05 -2.691618017339e+05 -2.670939290801e+05 -2.650971773114e+05 -2.631687136047e+05 -2.613057780825e+05 -2.595057010297e+05 -2.577659118784e+05 -2.560839428375e+05 -2.544574289493e+05 -2.528841060098e+05 -2.513618066287e+05 -2.498884550878e+05 -2.484620611340e+05 -2.470807132752e+05 -2.457425710912e+05 -2.444458564739e+05 -2.431888431847e+05 -2.419698441608e+05 -2.407871935503e+05 -2.396392150133e+05 -2.385241490279e+05 -2.374399519412e+05 -2.363836833510e+05 -2.353491916249e+05 -2.858717591517e+05 -2.832213339399e+05 -2.806675695873e+05 -2.782018627884e+05 -2.758210591099e+05 -2.735226054003e+05 -2.713038347102e+05 -2.691619391847e+05 -2.670940432245e+05 -2.650972697049e+05 -2.631687854884e+05 -2.613058303526e+05 -2.595057344203e+05 -2.577659269245e+05 -2.560839401635e+05 -2.544574089025e+05 -2.528840690218e+05 -2.513617527991e+05 -2.498883847649e+05 -2.484619743163e+05 -2.470806101939e+05 -2.457424515249e+05 -2.444457204832e+05 -2.431886903361e+05 -2.419696741229e+05 -2.407870050976e+05 -2.396390058937e+05 -2.385239122233e+05 -2.374396662429e+05 -2.363832797639e+05 -2.353484278939e+05 -2.858737532548e+05 -2.832221413962e+05 -2.806680943579e+05 -2.782022769078e+05 -2.758214067651e+05 -2.735229013936e+05 -2.713040864370e+05 -2.691621512137e+05 -2.670942189647e+05 -2.650974115220e+05 -2.631688952077e+05 -2.613059095240e+05 -2.595057843035e+05 -2.577659486482e+05 -2.560839343306e+05 -2.544573763241e+05 -2.528840100345e+05 -2.513616680732e+05 -2.498882742611e+05 -2.484618385022e+05 -2.470804488602e+05 -2.457422649656e+05 -2.444455080409e+05 -2.431884518150e+05 -2.419694083828e+05 -2.407867108245e+05 -2.396386785301e+05 -2.385235399140e+05 -2.374392112129e+05 -2.363826214995e+05 -2.353471406787e+05 -2.858766462982e+05 -2.832232461321e+05 -2.806687819529e+05 -2.782028079650e+05 -2.758218474355e+05 -2.735232740670e+05 -2.713044015004e+05 -2.691624153781e+05 -2.670944366659e+05 -2.650975863024e+05 -2.631690295365e+05 -2.613060055019e+05 -2.595058435209e+05 -2.577659724760e+05 -2.560839238034e+05 -2.544573321903e+05 -2.528839329923e+05 -2.513615585821e+05 -2.498881327791e+05 -2.484616651013e+05 -2.470802436537e+05 -2.457420276882e+05 -2.444452384381e+05 -2.431881490877e+05 -2.419690713545e+05 -2.407863367879e+05 -2.396382611147e+05 -2.385230607752e+05 -2.374386136170e+05 -2.363817221078e+05 -2.353452929837e+05 -2.858805965143e+05 -2.832246473554e+05 -2.806696029125e+05 -2.782034212506e+05 -2.758223474929e+05 -2.735236917267e+05 -2.713047513957e+05 -2.691627059854e+05 -2.670946740932e+05 -2.650977747630e+05 -2.631691727146e+05 -2.613061058794e+05 -2.595059031001e+05 -2.577659924150e+05 -2.560839054877e+05 -2.544572765909e+05 -2.528838411236e+05 -2.513614307636e+05 -2.498879694635e+05 -2.484614662252e+05 -2.470800093720e+05 -2.457417575568e+05 -2.444449321672e+05 -2.431878054051e+05 -2.419686884877e+05 -2.407859105862e+05 -2.396377827144e+05 -2.385225040340e+05 -2.374378975097e+05 -2.363805830482e+05 -2.353428014226e+05 -2.858859008217e+05 -2.832263812196e+05 -2.806705432527e+05 -2.782040915662e+05 -2.758228789301e+05 -2.735241270104e+05 -2.713051099223e+05 -2.691629995141e+05 -2.670949103137e+05 -2.650979592651e+05 -2.631693093477e+05 -2.613061978566e+05 -2.595059527284e+05 -2.577660016793e+05 -2.560838754834e+05 -2.544572084313e+05 -2.528837353755e+05 -2.513612882645e+05 -2.498877903380e+05 -2.484612508178e+05 -2.470797571822e+05 -2.457414683457e+05 -2.444446046981e+05 -2.431874384929e+05 -2.419682791960e+05 -2.407854539410e+05 -2.396372654885e+05 -2.385218898722e+05 -2.374370717998e+05 -2.363791750987e+05 -2.353394969810e+05 -2.858930965268e+05 -2.832285520459e+05 -2.806716209976e+05 -2.782048133375e+05 -2.758234286587e+05 -2.735245638148e+05 -2.713054602762e+05 -2.691632787972e+05 -2.670951287249e+05 -2.650981240488e+05 -2.631694255937e+05 -2.613062692343e+05 -2.595059819130e+05 -2.577659907917e+05 -2.560838261471e+05 -2.544571217375e+05 -2.528836120659e+05 -2.513611287085e+05 -2.498875948082e+05 -2.484610191983e+05 -2.470794892440e+05 -2.457411631348e+05 -2.444442608658e+05 -2.431870536342e+05 -2.419678497174e+05 -2.407849722962e+05 -2.396367137212e+05 -2.385212162971e+05 -2.374361153551e+05 -2.363774113010e+05 -2.353350602987e+05 -2.859031456815e+05 -2.832313823829e+05 -2.806729090673e+05 -2.782056161303e+05 -2.758240086562e+05 -2.735250044388e+05 -2.713057987493e+05 -2.691635364252e+05 -2.670953196893e+05 -2.650982577247e+05 -2.631695088192e+05 -2.613063066453e+05 -2.595059771843e+05 -2.577659462008e+05 -2.560837436102e+05 -2.544570023931e+05 -2.528834569720e+05 -2.513609381020e+05 -2.498873687992e+05 -2.484607573117e+05 -2.470791908986e+05 -2.457408268614e+05 -2.444438845771e+05 -2.431866338184e+05 -2.419673809547e+05 -2.407844436904e+05 -2.396360994846e+05 -2.385204426559e+05 -2.374349516067e+05 -2.363751027058e+05 -2.353289029532e+05 -2.859178077634e+05 -2.832353026810e+05 -2.806745702116e+05 -2.782065804081e+05 -2.758246635103e+05 -2.735254736349e+05 -2.713061365752e+05 -2.691637738939e+05 -2.670954766099e+05 -2.650983481669e+05 -2.631695423336e+05 -2.613062902020e+05 -2.595059151590e+05 -2.577658421100e+05 -2.560835995065e+05 -2.544568199507e+05 -2.528832367401e+05 -2.513606807941e+05 -2.498870741444e+05 -2.484604247417e+05 -2.470788185007e+05 -2.457404125568e+05 -2.444434248964e+05 -2.431861240569e+05 -2.419668124647e+05 -2.407838004079e+05 -2.396353425407e+05 -2.385194633729e+05 -2.374334093092e+05 -2.363718777341e+05 -2.353199301790e+05 -2.859404749517e+05 -2.832411331602e+05 -2.806769247684e+05 -2.782078681030e+05 -2.758254833077e+05 -2.735260200666e+05 -2.713064954878e+05 -2.691639930584e+05 -2.670955869888e+05 -2.650983707168e+05 -2.631694919967e+05 -2.613061770583e+05 -2.595057464651e+05 -2.577656225042e+05 -2.560833325036e+05 -2.544565073995e+05 -2.528828797924e+05 -2.513602792163e+05 -2.498866274398e+05 -2.484599311601e+05 -2.470782757123e+05 -2.457398165128e+05 -2.444427704546e+05 -2.431854029848e+05 -2.419660114922e+05 -2.407828928047e+05 -2.396342671050e+05 -2.385180522126e+05 -2.374311414979e+05 -2.363670101472e+05 -2.353060001669e+05 -2.859783269797e+05 -2.832505041355e+05 -2.806806135416e+05 -2.782098071617e+05 -2.758266308231e+05 -2.735267093214e+05 -2.713068837968e+05 -2.691641671047e+05 -2.670955985740e+05 -2.650982531460e+05 -2.631692676784e+05 -2.613058622172e+05 -2.595053526700e+05 -2.577651579225e+05 -2.560828020678e+05 -2.544559141004e+05 -2.528822245576e+05 -2.513595615991e+05 -2.498858453885e+05 -2.484590820756e+05 -2.470773556464e+05 -2.457388196749e+05 -2.444416869737e+05 -2.431842168440e+05 -2.419646945416e+05 -2.407813941984e+05 -2.396324833528e+05 -2.385157221696e+05 -2.374274344888e+05 -2.363589977734e+05 -2.352825210895e+05 -2.860490770861e+05 -2.832669845922e+05 -2.806869515453e+05 -2.782132048958e+05 -2.758285640156e+05 -2.735277007552e+05 -2.713072558880e+05 -2.691641333733e+05 -2.670952895059e+05 -2.650977430464e+05 -2.631685978483e+05 -2.613050558463e+05 -2.595044236952e+05 -2.577641153060e+05 -2.560816520900e+05 -2.544546610381e+05 -2.528808715464e+05 -2.513581104694e+05 -2.498842962408e+05 -2.484574314507e+05 -2.470755943234e+05 -2.457369283077e+05 -2.444396308947e+05 -2.431819411327e+05 -2.419621243877e+05 -2.407784385964e+05 -2.396290138927e+05 -2.385113837142e+05 -2.374207734031e+05 -2.363442831109e+05 -2.352381240565e+05 -2.862085725215e+05 -2.833009315022e+05 -2.806976481700e+05 -2.782193712731e+05 -2.758328982396e+05 -2.735303113140e+05 -2.713082607488e+05 -2.691638501715e+05 -2.670940786746e+05 -2.650959048160e+05 -2.631663439168e+05 -2.613025199232e+05 -2.595016836116e+05 -2.577612139407e+05 -2.560786120024e+05 -2.544514925115e+05 -2.528775745543e+05 -2.513546722873e+05 -2.498806858042e+05 -2.484535931779e+05 -2.470714442780e+05 -2.457323582025e+05 -2.444345264615e+05 -2.431762225772e+05 -2.419558064656e+05 -2.407716709666e+05 -2.396219471991e+05 -2.385034019212e+05 -2.374078689201e+05 -2.363115601892e+05 -2.351381619841e+05 -2.866909245582e+05 -2.834153448176e+05 -2.807125332194e+05 -2.782147044256e+05 -2.758298597983e+05 -2.735314421830e+05 -2.713114562000e+05 -2.691667664650e+05 -2.670951895375e+05 -2.650944999142e+05 -2.631622751338e+05 -2.612959522768e+05 -2.594929135446e+05 -2.577505553983e+05 -2.560663356981e+05 -2.544378036128e+05 -2.528626182448e+05 -2.513385608543e+05 -2.498635444002e+05 -2.484356223698e+05 -2.470529964582e+05 -2.457140190293e+05 -2.444171779139e+05 -2.431610307257e+05 -2.419440097392e+05 -2.407639111515e+05 -2.396166298413e+05 -2.384930995286e+05 -2.373719633886e+05 -2.362021318781e+05 -2.348530735294e+05 -2.882009653455e+05 -2.842848623847e+05 -2.811308979413e+05 -2.783608768799e+05 -2.758233419940e+05 -2.734452169842e+05 -2.711883012660e+05 -2.690310501102e+05 -2.669603582242e+05 -2.649676290251e+05 -2.630467921510e+05 -2.611932542144e+05 -2.594033189652e+05 -2.576738532344e+05 -2.560020859479e+05 -2.543854797945e+05 -2.528216420710e+05 -2.513082534900e+05 -2.498430007344e+05 -2.484234996162e+05 -2.470471950200e+05 -2.457112177825e+05 -2.444121683452e+05 -2.431457752787e+05 -2.419063403583e+05 -2.406858152266e+05 -2.394722439258e+05 -2.382471427959e+05 -2.369812966299e+05 -2.356577056536e+05 -2.341786560895e+05 -2.794055719108e+05 -2.792241651496e+05 -2.784027958477e+05 -2.770057394127e+05 -2.753029394923e+05 -2.734427595119e+05 -2.715103875146e+05 -2.695570042377e+05 -2.676116489138e+05 -2.656934672932e+05 -2.638141569254e+05 -2.619807355065e+05 -2.601972457109e+05 -2.584658413194e+05 -2.567875005854e+05 -2.551625136008e+05 -2.535908305553e+05 -2.520723302872e+05 -2.506070472124e+05 -2.491953943900e+05 -2.478384148024e+05 -2.465381037339e+05 -2.452978636086e+05 -2.441232086923e+05 -2.430234595705e+05 -2.420137721927e+05 -2.411178263095e+05 -2.403780564093e+05 -2.398735028208e+05 -2.397630199959e+05 -2.403437201333e+05 
        </DataArray>
        <DataArray type="Float64" Name="STRESS_XX" format="ascii">
          -1.040206197496e+03 -6.415590235049e+03 -1.156811705843e+04 -1.651890607474e+04 -2.128129615880e+04 -2.586641069787e+04 -3.028391036877e+04 -3.454238888922e+04 -3.864961992007e+04 -4.261272317493e+04 -4.643828061263e+04 -5.013241978748e+04 -5.370087529935e+04 -5.714903473966e+04 -6.048197355133e+04 -6.370448208174e+04 -6.682108725183e+04 -6.983606971224e+04 -7.275347704125e+04 -7.557713362699e+04 -7.831064782726e+04 -8.095741612448e+04 -8.352062381153e+04 -8.600324171503e+04 -8.840801914780e+04 -9.073747293009e+04 -9.299387384634e+04 -9.517923771942e+04 -9.729534998941e+04 -9.934391972190e+04 -1.013279003948e+05 -3.773152508798e+03 -9.074344912217e+03 -1.415332298615e+04 -1.903296471564e+04 -2.372675148714e+04 -2.824573954526e+04 -3.259948478873e+04 -3.679647436460e+04 -4.084438024128e+04 -4.475022617155e+04 -4.852050353098e+04 -5.216125446630e+04 -5.567813293368e+04 -5.907645004793e+04 -6.236120870578e+04 -6.553713044323e+04 -6.860867704199e+04 -7.158006724069e+04 -7.445528983447e+04 -7.723811327683e+04 -7.993209291441e+04 -8.254057486200e+04 -8.506669663234e+04 -8.751338366092e+04 -8.988334203699e+04 -9.217904623262e+04 -9.440272174664e+04 -9.655632361517e+04 -9.864151896093e+04 -1.006597023123e+05 -1.026126700223e+05 -1.186701202055e+04 -1.694845268488e+04 -2.180960323935e+04 -2.647853379773e+04 -3.096914462723e+04 -3.529229245938e+04 -3.945722288937e+04 -4.347210720587e+04 -4.734431595749e+04 -5.108058883347e+04 -5.468714934201e+04 -5.816978645549e+04 -6.153391495591e+04 -6.478461939811e+04 -6.792668842916e+04 -7.096463963232e+04 -7.390274188664e+04 -7.674503005139e+04 -7.949531932073e+04 -8.215721211927e+04 -8.473410719397e+04 -8.722920086721e+04 -8.964548996220e+04 -9.198576496208e+04 -9.425260430445e+04 -9.644835624240e+04 -9.857511309190e+04 -1.006346492906e+05 -1.026282813931e+05 -1.045564696461e+05 -1.064175772650e+05 -2.501088163162e+04 -2.973536645969e+04 -3.424275712195e+04 -3.856949913693e+04 -4.273016268401e+04 -4.673527704721e+04 -5.059358381100e+04 -5.431274085079e+04 -5.789962951071e+04 -6.136052733450e+04 -6.470122267193e+04 -6.792709400075e+04 -7.104316766636e+04 -7.405416058112e+04 -7.696451220967e+04 -7.977841030493e+04 -8.249980928078e+04 -8.513244675952e+04 -8.767985378293e+04 -9.014536533232e+04 -9.253212407376e+04 -9.484308534244e+04 -9.708101466900e+04 -9.924848578686e+04 -1.013478679341e+05 -1.033813067768e+05 -1.053506753610e+05 -1.072574562046e+05 -1.091023931398e+05 -1.108844254245e+05 -1.125963162283e+05 -4.269988761522e+04 -4.694377229108e+04 -5.097502462962e+04 -5.484123465676e+04 -5.855784871715e+04 -6.213495121604e+04 -6.558060254572e+04 -6.890176989752e+04 -7.210467498389e+04 -7.519497442674e+04 -7.817787030055e+04 -8.105818850135e+04 -8.384043252306e+04 -8.652882444202e+04 -8.912733431955e+04 -9.163970466835e+04 -9.406946792007e+04 -9.641996059048e+04 -9.869433311549e+04 -1.008955582054e+05 -1.030264355649e+05 -1.050895943832e+05 -1.070874915077e+05 -1.090224065820e+05 -1.108964288646e+05 -1.127114292017e+05 -1.144689874861e+05 -1.161701905446e+05 -1.178150090414e+05 -1.194003203764e+05 -1.209112988341e+05 -6.425460736305e+04 -6.791246698888e+04 -7.136344089050e+04 -7.466845205536e+04 -7.784396856489e+04 -8.089952037894e+04 -8.384233678817e+04 -8.667854085934e+04 -8.941355120026e+04 -9.205226644571e+04 -9.459917580407e+04 -9.705843046930e+04 -9.943389676093e+04 -1.017291928523e+05 -1.039477180912e+05 -1.060926723317e+05 -1.081670735905e+05 -1.101737689398e+05 -1.121154454197e+05 -1.139946344693e+05 -1.158137178655e+05 -1.175749269076e+05 -1.192803424512e+05 -1.209318855543e+05 -1.225313043086e+05 -1.240801339249e+05 -1.255795972123e+05 -1.270302965207e+05 -1.284312533318e+05 -1.297768055127e+05 -1.310427770880e+05 -8.884722798790e+04 -9.183577605003e+04 -9.462454444786e+04 -9.728923024694e+04 -9.984738306854e+04 -1.023078818606e+05 -1.046770014371e+05 -1.069599018756e+05 -1.091610839314e+05 -1.112845816256e+05 -1.133340687715e+05 -1.153129280761e+05 -1.172242984990e+05 -1.190711101158e+05 -1.208561091166e+05 -1.225818771823e+05 -1.242508445762e+05 -1.258653013884e+05 -1.274274042791e+05 -1.289391826726e+05 -1.304025399548e+05 -1.318192550266e+05 -1.331909776035e+05 -1.345192215031e+05 -1.358053437631e+05 -1.370504982586e+05 -1.382554966552e+05 -1.394203865040e+05 -1.405430916843e+05 -1.416150087014e+05 -1.426011054418e+05 -1.155334650930e+05 -1.177945388688e+05 -1.198644944532e+05 -1.218342988215e+05 -1.237225332039e+05 -1.255373372942e+05 -1.272839417343e+05 -1.289664580567e+05 -1.305883903430e+05 -1.321528340709e+05 -1.336625782807e+05 -1.351201707850e+05 -1.365279611455e+05 -1.378881326251e+05 -1.392027233672e+05 -1.404736433016e+05 -1.417026852556e+05 -1.428915341743e+05 -1.440417722040e+05 -1.451548827221e+05 -1.462322511554e+05 -1.472751642047e+05 -1.482848051348e+05 -1.492622440303e+05 -1.502084146286e+05 -1.511240547049e+05 -1.520095294752e+05 -1.528642763738e+05 -1.536850069504e+05 -1.544598450313e+05 -1.551416545518e+05 -1.432890655797e+05 -1.447914866905e+05 -1.461134403806e+05 -1.473604562150e+05 -1.485519426106e+05 -1.496952139644e+05 -1.507944016850e+05 -1.518525223332e+05 -1.528720420001e+05 -1.538550778305e+05 -1.548034987357e+05 -1.557189834557e+05 -1.566030612147e+05 -1.574571372322e+05 -1.582825136443e+05 -1.590804014385e+05 -1.598519311662e+05 -1.605981574673e+05 -1.613200651127e+05 -1.620185694364e+05 -1.626945173909e+05 -1.633486832002e+05 -1.639817646487e+05 -1.645943700385e+05 -1.651869926132e+05 -1.657599360664e+05 -1.663130975584e+05 -1.668452687526e+05 -1.673518621523e+05 -1.678174606479e+05 -1.681817723201e+05 -1.710496086947e+05 -1.717896759140e+05 -1.723628340907e+05 -1.728868338243e+05 -1.733814819069e+05 -1.738531722426e+05 -1.743049111754e+05 -1.747386127684e+05 -1.751557008864e+05 -1.755573143609e+05 -1.759443996961e+05 -1.763177666537e+05 -1.766781220278e+05 -1.770260943988e+05 -1.773622482783e+05 -1.776870963492e+05 -1.780011052290e+05 -1.783047012201e+05 -1.785982703423e+05 -1.788821602888e+05 -1.791566775100e+05 -1.794220852455e+05 -1.796785945869e+05 -1.799263524460e+05 -1.801654086070e+05 -1.803956316584e+05 -1.806164436472e+05 -1.808259720714e+05 -1.810182623211e+05 -1.811741185099e+05 -1.812190729807e+05 -1.977523790442e+05 -1.977525547003e+05 -1.976042606390e+05 -1.974326229535e+05 -1.972570505076e+05 -1.970828808510e+05 -1.969119959192e+05 -1.967452343163e+05 -1.965830119763e+05 -1.964255223293e+05 -1.962728243102e+05 -1.961248896642e+05 -1.959816343541e+05 -1.958429379273e+05 -1.957086569191e+05 -1.955786311775e+05 -1.954526895029e+05 -1.953306513955e+05 -1.952123284673e+05 -1.950975214162e+05 -1.949860180284e+05 -1.948775875709e+05 -1.947719737946e+05 -1.946688775991e+05 -1.945679218546e+05 -1.944685501919e+05 -1.943697170165e+05 -1.942688755109e+05 -1.941586420255e+05 -1.940157493259e+05 -1.937501690584e+05 -2.223796285635e+05 -2.216842837354e+05 -2.208683422928e+05 -2.200548339925e+05 -2.192612611429e+05 -2.184916817009e+05 -2.177468677141e+05 -2.170266387950e+05 -2.163304655998e+05 -2.156576611197e+05 -2.150074599110e+05 -2.143790601219e+05 -2.137716474134e+05 -2.131844105892e+05 -2.126165509646e+05 -2.120672882677e+05 -2.115358622503e+05 -2.110215334834e+05 -2.105235819254e+05 -2.100413046840e+05 -2.095740104750e+05 -2.091210135268e+05 -2.086816235261e+05 -2.082551278632e+05 -2.078407482245e+05 -2.074375250335e+05 -2.070439586183e+05 -2.066568295861e+05 -2.062672330800e+05 -2.058472672573e+05 -2.052885721127e+05 -2.440050303680e+05 -2.426693147207e+05 -2.412622784462e+05 -2.398847245226e+05 -2.385488456463e+05 -2.372569568703e+05 -2.360087849695e+05 -2.348032353572e+05 -2.336389213829e+05 -2.325143557563e+05 -2.314280297468e+05 -2.303784492438e+05 -2.293641528213e+05 -2.283837206267e+05 -2.274357792496e+05 -2.265190039316e+05 -2.256321189319e+05 -2.247738953243e+05 -2.239431478169e+05 -2.231387299680e+05 -2.223595276601e+05 -2.216044490650e+05 -2.208724112913e+05 -2.201623192772e+05 -2.194730235664e+05 -2.188032023919e+05 -2.181509676138e+05 -2.175124690740e+05 -2.168770049057e+05 -2.162103528234e+05 -2.153790311423e+05 -2.618583064721e+05 -2.599132232474e+05 -2.580039962383e+05 -2.561607451827e+05 -2.543794357995e+05 -2.526584415409e+05 -2.509964698636e+05 -2.493918944520e+05 -2.478427729870e+05 -2.463470036690e+05 -2.449024496537e+05 -2.435070105485e+05 -2.421586564233e+05 -2.408554404821e+05 -2.395955003647e+05 -2.383770542849e+05 -2.371983946762e+05 -2.360578805553e+05 -2.349539289091e+05 -2.338850060936e+05 -2.328496197387e+05 -2.318463128858e+05 -2.308736623412e+05 -2.299302813576e+05 -2.290148089704e+05 -2.281258008996e+05 -2.272612008705e+05 -2.264163070216e+05 -2.255767565060e+05 -2.246957529173e+05 -2.235984948462e+05 -2.754978496078e+05 -2.728231345516e+05 -2.704544931093e+05 -2.682444946060e+05 -2.661329508886e+05 -2.640983490645e+05 -2.621330193207e+05 -2.602337812812e+05 -2.583986439305e+05 -2.566257511307e+05 -2.549131179340e+05 -2.532586210906e+05 -2.516600544676e+05 -2.501151879679e+05 -2.486218136466e+05 -2.471777780367e+05 -2.457810040302e+05 -2.444295063825e+05 -2.431214046242e+05 -2.418549360186e+05 -2.406284696588e+05 -2.394405200951e+05 -2.382897507878e+05 -2.371749354482e+05 -2.360947882580e+05 -2.350474240180e+05 -2.340288123260e+05 -2.330285309943e+05 -2.320182743766e+05 -2.309208239349e+05 -2.294992237877e+05 -2.850297482836e+05 -2.815823194187e+05 -2.785809328500e+05 -2.758907676662e+05 -2.734131667662e+05 -2.710900991442e+05 -2.688874487953e+05 -2.667844664660e+05 -2.647679036286e+05 -2.628288209178e+05 -2.609608297301e+05 -2.591590984358e+05 -2.574197743460e+05 -2.557396369830e+05 -2.541158831243e+05 -2.525459871984e+05 -2.510276043216e+05 -2.495584943685e+05 -2.481364521869e+05 -2.467592297602e+05 -2.454244346324e+05 -2.441293811065e+05 -2.428708563602e+05 -2.416447319733e+05 -2.404452912794e+05 -2.392640171687e+05 -2.380873213893e+05 -2.368921193636e+05 -2.356368582947e+05 -2.342425940490e+05 -2.325381656608e+05 -2.793899753874e+05 -2.792220310109e+05 -2.783970653245e+05 -2.770004884137e+05 -2.752991575812e+05 -2.734402493692e+05 -2.715085392012e+05 -2.695545327339e+05 -2.676089867628e+05 -2.656908114617e+05 -2.638115908272e+05 -2.619782863682e+05 -2.601949128655e+05 -2.584636106693e+05 -2.567853522208e+05 -2.551604260070e+05 -2.535887832517e+05 -2.520703060448e+05 -2.506050347435e+05 -2.491933925333e+05 -2.478364398077e+05 -2.465362025582e+05 -2.452961389736e+05 -2.441218680629e+05 -2.430223884492e+05 -2.420122647964e+05 -2.411158180057e+05 -2.403757010853e+05 -2.398715395375e+05 -2.397627102862e+05 -2.403383602908e+05 
        </DataArray>
        <DataArray type="Float64" Name="STRESS_XY" format="ascii">
          2.449141708660e+02 1.644868738201e+02 1.189632244883e+02 8.905396448109e+01 6.861001342508e+01 5.438160982741e+01 4.435908880891e+01 3.721666315701e+01 3.205728693935e+01 2.826662656594e+01 2.542010976370e+01 2.322124086007e+01 2.145977149561e+01 1.998299456963e+01 1.867554636774e+01 1.744498931147e+01 1.621093881789e+01 1.489649081551e+01 1.342065669426e+01 1.169123733971e+01 9.597286031198e+00 7.000755528067e+00 3.726458121768e+00 -4.499229590974e-01 -5.816034970061e+00 -1.273781468951e+01 -2.166896195141e+01 -3.313094315530e+01 -4.758221395998e+01 -6.490718169871e+01 -8.194508155677e+01 2.776545641665e+04 2.699767935376e+04 2.624855230024e+04 2.552569159663e+04 2.482905489822e+04 2.415764491085e+04 2.351033308145e+04 2.288602403498e+04 2.228368307986e+04 2.170233624024e+04 2.114106563489e+04 2.059900458864e+04 2.007533347529e+04 1.956927610951e+04 1.908009686859e+04 1.860709789896e+04 1.814961686684e+04 1.770702480356e+04 1.727872452784e+04 1.686414891486e+04 1.646275964339e+04 1.607404582388e+04 1.569752316836e+04 1.533273270670e+04 1.497923880272e+04 1.463662298206e+04 1.430446440441e+04 1.398227336578e+04 1.366926982295e+04 1.336365199524e+04 1.305917039560e+04 5.446513824648e+04 5.295811395898e+04 5.148847610668e+04 5.007049061931e+04 4.870397358916e+04 4.738694712090e+04 4.611719269803e+04 4.489256055612e+04 4.371102087558e+04 4.257066311150e+04 4.146968667891e+04 4.040639154254e+04 3.937916991695e+04 3.838649935233e+04 3.742693666415e+04 3.649911297997e+04 3.560172900327e+04 3.473355116719e+04 3.389340785671e+04 3.308018667008e+04 3.229283148434e+04 3.153034040672e+04 3.079176337983e+04 3.007620023419e+04 2.938279637098e+04 2.871073168580e+04 2.805918254563e+04 2.742719504382e+04 2.681326072655e+04 2.621391738429e+04 2.561719079866e+04 7.907425750786e+04 7.688391232820e+04 7.474989200228e+04 7.269118855063e+04 7.070727732602e+04 6.879523170223e+04 6.695181891880e+04 6.517391542642e+04 6.345857363296e+04 6.180301970176e+04 6.020463956686e+04 5.866096508027e+04 5.716966196009e+04 5.572851983550e+04 5.433544367430e+04 5.298844608909e+04 5.168564072935e+04 5.042523647789e+04 4.920553261868e+04 4.802491414207e+04 4.688184792307e+04 4.577487915555e+04 4.470262870881e+04 4.366378978023e+04 4.265712240304e+04 4.168143728328e+04 4.073554377869e+04 3.981807367929e+04 3.892689297213e+04 3.805715876718e+04 3.719221338988e+04 1.006484371481e+05 9.785587069615e+04 9.513894393373e+04 9.251851098528e+04 8.999340795878e+04 8.755980365295e+04 8.521356057388e+04 8.295069786235e+04 8.076746294164e+04 7.866032504031e+04 7.662595700860e+04 7.466121726080e+04 7.276313489754e+04 7.092889655902e+04 6.915583562269e+04 6.744142242207e+04 6.578325615634e+04 6.417905729545e+04 6.262666116287e+04 6.112401201876e+04 5.966915845581e+04 5.826024903251e+04 5.689552862394e+04 5.557333420656e+04 5.429208833187e+04 5.305028026190e+04 5.184640439629e+04 5.067875171966e+04 4.954471356818e+04 4.843848017220e+04 4.734025159183e+04 1.183600687830e+05 1.150683053245e+05 1.118721466599e+05 1.087905188445e+05 1.058212173918e+05 1.029595584227e+05 1.002006377413e+05 9.753976619033e+04 9.497252927805e+04 9.249477488453e+04 9.010259028323e+04 8.779228151768e+04 8.556035499862e+04 8.340350260464e+04 8.131858841182e+04 7.930263800534e+04 7.735282816931e+04 7.546647848943e+04 7.364104324403e+04 7.187410539852e+04 7.016337030811e+04 6.850666108030e+04 6.690191369589e+04 6.534717333717e+04 6.384058658721e+04 6.238038215272e+04 6.096480565618e+04 5.959190218503e+04 5.825878522724e+04 5.695922017713e+04 5.567228729097e+04 1.315302200610e+05 1.278600385078e+05 1.243065060804e+05 1.208818959612e+05 1.175824537109e+05 1.144026958105e+05 1.113371129452e+05 1.083804816179e+05 1.055278939457e+05 1.027747355977e+05 1.001166590214e+05 9.754955949366e+04 9.506955519110e+04 9.267297014925e+04 9.035632013464e+04 8.811629991840e+04 8.594977253900e+04 8.385375936413e+04 8.182543204483e+04 7.986210475072e+04 7.796122803237e+04 7.612038285401e+04 7.433727643990e+04 7.260973727391e+04 7.093570853124e+04 6.931322941441e+04 6.774037644220e+04 6.621506241029e+04 6.473436301894e+04 6.329228325324e+04 6.186927493493e+04 1.396548848153e+05 1.357398446851e+05 1.319642440259e+05 1.283279881048e+05 1.248251413239e+05 1.214494663783e+05 1.181950249495e+05 1.150562523274e+05 1.120279341573e+05 1.091051711197e+05 1.062833478016e+05 1.035581065644e+05 1.009253264147e+05 9.838110500625e+04 9.592174351054e+04 9.354373310944e+04 9.124374354165e+04 8.901861285612e+04 8.686533849918e+04 8.478106927976e+04 8.276309863817e+04 8.080885893447e+04 7.891591659754e+04 7.708196764942e+04 7.530483196611e+04 7.358243968858e+04 7.191278703412e+04 7.029378564982e+04 6.872275396620e+04 6.719472420460e+04 6.569448333046e+04 1.424246020143e+05 1.384053813808e+05 1.345511796045e+05 1.308426702170e+05 1.272709569789e+05 1.238290743346e+05 1.205108368778e+05 1.173105427279e+05 1.142228693180e+05 1.112428203784e+05 1.083656896830e+05 1.055870343350e+05 1.029026525622e+05 1.003085658415e+05 9.780100269771e+04 9.537638567256e+04 9.303131921657e+04 9.076257974468e+04 8.856710583399e+04 8.644199063568e+04 8.438447469302e+04 8.239194060243e+04 8.046190770975e+04 7.859202876557e+04 7.678008618178e+04 7.502398663901e+04 7.332174274269e+04 7.167141102794e+04 7.007087539698e+04 6.851711385920e+04 6.700273118620e+04 1.397367662531e+05 1.357548888574e+05 1.319680627829e+05 1.283293559810e+05 1.248259336354e+05 1.214500886237e+05 1.181955658701e+05 1.150567322155e+05 1.120283587344e+05 1.091055429829e+05 1.062836690711e+05 1.035583794088e+05 1.009255532104e+05 9.838128807107e+04 9.592188531758e+04 9.354383627672e+04 9.124381098690e+04 8.901864750014e+04 8.686534362710e+04 8.478104857531e+04 8.276305657500e+04 8.080880073800e+04 7.891584945190e+04 7.708190325036e+04 7.530479526402e+04 7.358249650684e+04 7.191313845130e+04 7.029508368627e+04 6.872715310409e+04 6.720934764919e+04 6.574622166192e+04 1.317003300045e+05 1.278912353602e+05 1.243144369473e+05 1.208847315960e+05 1.175840830763e+05 1.144039652848e+05 1.113382098571e+05 1.083814498823e+05 1.055287466363e+05 1.027754794690e+05 1.001172993812e+05 9.755010157639e+04 9.507000421338e+04 9.267333147342e+04 9.035659895662e+04 8.811650179001e+04 8.594990329921e+04 8.385382551904e+04 8.182544043289e+04 7.986206324401e+04 7.796114573505e+04 7.612027135596e+04 7.433715123144e+04 7.260962368184e+04 7.093565868762e+04 6.931338046162e+04 6.774114543351e+04 6.621780321783e+04 6.474354982780e+04 6.332271095744e+04 6.197687325999e+04 1.186331459404e+05 1.151182188150e+05 1.118849350369e+05 1.087951107963e+05 1.058238208607e+05 1.029615543080e+05 1.002023453055e+05 9.754126360690e+04 9.497384031973e+04 9.249591206180e+04 9.010356431595e+04 8.779310236327e+04 8.556103232486e+04 8.340404581544e+04 8.131900693142e+04 7.930294094620e+04 7.735302504399e+04 7.546657959424e+04 7.364106045849e+04 7.187405214983e+04 7.016326274007e+04 6.850651922175e+04 6.690176451007e+04 6.534705814263e+04 6.384058894661e+04 6.238072174703e+04 6.096615521671e+04 5.959644122513e+04 5.827369270077e+04 5.700820615378e+04 5.584534418803e+04 1.010532670266e+05 9.792938079137e+04 9.515831843753e+04 9.252576599135e+04 8.999747896217e+04 8.756278943361e+04 8.521603354249e+04 8.295283692890e+04 8.076932902860e+04 7.866194233302e+04 7.662733994802e+04 7.466237930568e+04 7.276409022742e+04 7.092966038123e+04 6.915642402588e+04 6.744185239017e+04 6.578354536189e+04 6.417922462272e+04 6.262672718377e+04 6.112399935932e+04 5.966909162579e+04 5.826015551238e+04 5.689544341181e+04 5.557331569358e+04 5.429226711358e+04 5.305100946439e+04 5.184873024145e+04 5.068593947451e+04 4.956731861956e+04 4.851136888926e+04 4.759754349702e+04 7.966896824259e+04 7.698960287053e+04 7.477960920020e+04 7.270444016278e+04 7.071539312251e+04 6.880079945284e+04 6.695584301777e+04 6.517697585387e+04 6.346102067583e+04 6.180504977516e+04 6.020635466018e+04 5.866241695047e+04 5.717087995983e+04 5.572952554189e+04 5.433625711209e+04 5.298908734334e+04 5.168612920064e+04 5.042558954557e+04 4.920576515291e+04 4.802504106010e+04 4.688189168754e+04 4.577488542331e+04 4.470269361588e+04 4.366410519606e+04 4.265805494196e+04 4.168370659836e+04 4.074076936933e+04 3.983073616851e+04 3.896150827217e+04 3.816378848080e+04 3.757124391886e+04 5.539087268140e+04 5.310617190160e+04 5.152584467078e+04 5.009414444871e+04 4.872575879388e+04 4.740547421422e+04 4.613115878086e+04 4.490201945007e+04 4.371676828345e+04 4.257368330611e+04 4.147086745513e+04 4.040642213150e+04 3.937853385823e+04 3.838550854995e+04 3.742577970027e+04 3.649790561564e+04 3.560056311037e+04 3.473254048350e+04 3.389273022565e+04 3.308012027068e+04 3.229378024071e+04 3.153283637081e+04 3.079642707489e+04 3.008363330809e+04 2.939339889355e+04 2.872454704062e+04 2.807632079694e+04 2.745092153248e+04 2.686279179219e+04 2.636938849781e+04 2.620796753822e+04 2.999237081760e+04 2.724852558600e+04 2.607187760894e+04 2.529235037781e+04 2.463547821609e+04 2.401977150209e+04 2.342176157682e+04 2.283585539875e+04 2.226178954332e+04 2.170060153535e+04 2.115336188664e+04 2.062082683061e+04 2.010339420056e+04 1.960114842385e+04 1.911392038839e+04 1.864133809477e+04 1.818286198704e+04 1.773780561897e+04 1.730534401819e+04 1.688451414993e+04 1.647421574663e+04 1.607322926965e+04 1.568028755584e+04 1.529428704800e+04 1.491484397141e+04 1.454370226786e+04 1.418827770980e+04 1.387067949483e+04 1.365110204628e+04 1.368971605832e+04 1.447606495580e+04 -2.065801229439e+03 7.659451838746e+02 1.243291939032e+03 1.175239270886e+03 9.839063993437e+02 7.905355670505e+02 6.264526330840e+02 4.956504640092e+02 3.943196458593e+02 3.171057219088e+02 2.590555665090e+02 2.161197730900e+02 1.851776159977e+02 1.639219429441e+02 1.507218799763e+02 1.445019339627e+02 1.446471253283e+02 1.509328148564e+02 1.634739285928e+02 1.826852058259e+02 2.092395547769e+02 2.440015640476e+02 2.878901701102e+02 3.415704763482e+02 4.047478357184e+02 4.745250745414e+02 5.414935566249e+02 5.801699858342e+02 5.248958039592e+02 2.073571473563e+02 -8.662089073240e+02 
        </DataArray>
        <DataArray type="Float64" Name="STRESS_YY" format="ascii">
          -2.853298584784e+05 -2.827007887841e+05 -2.801604917012e+05 -2.777071619914e+05 -2.753385644775e+05 -2.730522138758e+05 -2.708453763292e+05 -2.687151783011e+05 -2.666586991163e+05 -2.646730344382e+05 -2.627553368601e+05 -2.609028405908e+05 -2.591128756252e+05 -2.573828747216e+05 -2.557103755298e+05 -2.540930195443e+05 -2.525285491480e+05 -2.510148031326e+05 -2.495497110026e+05 -2.481312863002e+05 -2.467576192576e+05 -2.454268685051e+05 -2.441372516056e+05 -2.428870339814e+05 -2.416745160574e+05 -2.404980174828e+05 -2.393558559976e+05 -2.382463140643e+05 -2.371675736787e+05 -2.361175562847e+05 -2.350935628150e+05 -2.853300201794e+05 -2.827008163541e+05 -2.801604861996e+05 -2.777071436030e+05 -2.753385385771e+05 -2.730521824100e+05 -2.708453402450e+05 -2.687151382159e+05 -2.666586554885e+05 -2.646729876165e+05 -2.627552870558e+05 -2.609027879571e+05 -2.591128203314e+05 -2.573828169081e+05 -2.557103152683e+05 -2.540929568433e+05 -2.525284840390e+05 -2.510147356617e+05 -2.495496412260e+05 -2.481312142268e+05 -2.467575448738e+05 -2.454267917684e+05 -2.441371724419e+05 -2.428869522676e+05 -2.416744316300e+05 -2.404979300719e+05 -2.393557650115e+05 -2.382462180775e+05 -2.371674687205e+05 -2.361174301817e+05 -2.350933737692e+05 -2.853305198042e+05 -2.827009035058e+05 -2.801604720166e+05 -2.777070903448e+05 -2.753384628151e+05 -2.730520901196e+05 -2.708452343770e+05 -2.687150206462e+05 -2.666585275023e+05 -2.646728502298e+05 -2.627551410739e+05 -2.609026338917e+05 -2.591126585734e+05 -2.573826476876e+05 -2.557101389558e+05 -2.540927735511e+05 -2.525282939973e+05 -2.510145388021e+05 -2.495494377764e+05 -2.481310040639e+05 -2.467573281049e+05 -2.454265680407e+05 -2.441369417177e+05 -2.428867140259e+05 -2.416741854921e+05 -2.404976749048e+05 -2.393554992312e+05 -2.382459372646e+05 -2.371671608417e+05 -2.361170573728e+05 -2.350928073514e+05 -2.853313982822e+05 -2.827010605319e+05 -2.801604538079e+05 -2.777070059983e+05 -2.753383415138e+05 -2.730519420389e+05 -2.708450647499e+05 -2.687148326466e+05 -2.666583235005e+05 -2.646726317309e+05 -2.627549091600e+05 -2.609023894975e+05 -2.591124024397e+05 -2.573823804847e+05 -2.557098608685e+05 -2.540924850594e+05 -2.525279951548e+05 -2.510142300167e+05 -2.495491187260e+05 -2.481306749821e+05 -2.467569885864e+05 -2.454262182181e+05 -2.441365807521e+05 -2.428863415771e+05 -2.416738003380e+05 -2.404972759119e+05 -2.393550829494e+05 -2.382454963329e+05 -2.371666735018e+05 -2.361164576929e+05 -2.350918692184e+05 -2.853327343401e+05 -2.827013077442e+05 -2.801604403478e+05 -2.777068974286e+05 -2.753381815232e+05 -2.730517463062e+05 -2.708448406880e+05 -2.687145851222e+05 -2.666580555632e+05 -2.646723458031e+05 -2.627546067646e+05 -2.609020719489e+05 -2.591120706638e+05 -2.573820352762e+05 -2.557095027471e+05 -2.540921143247e+05 -2.525276121125e+05 -2.510138347593e+05 -2.495487113616e+05 -2.481302552606e+05 -2.467565563412e+05 -2.454257729243e+05 -2.441361218912e+05 -2.428858680870e+05 -2.416733108848e+05 -2.404967680373e+05 -2.393545519722e+05 -2.382449306692e+05 -2.371660406405e+05 -2.361156571353e+05 -2.350905581969e+05 -2.853346607736e+05 -2.827016796626e+05 -2.801604465678e+05 -2.777067748273e+05 -2.753379927555e+05 -2.730515130126e+05 -2.708445737712e+05 -2.687142908157e+05 -2.666577382854e+05 -2.646720084242e+05 -2.627542519130e+05 -2.609017011800e+05 -2.591116851686e+05 -2.573816355367e+05 -2.557090895995e+05 -2.540916881818e+05 -2.525271734363e+05 -2.510133834048e+05 -2.495482474538e+05 -2.481297783949e+05 -2.467560662575e+05 -2.454252687279e+05 -2.441356029177e+05 -2.428853327302e+05 -2.416727571416e+05 -2.404961920320e+05 -2.393539472026e+05 -2.382442806334e+05 -2.371652989767e+05 -2.361146791321e+05 -2.350888519006e+05 -2.853373947336e+05 -2.827022332170e+05 -2.801604954641e+05 -2.777066525832e+05 -2.753377867447e+05 -2.730512536598e+05 -2.708442755308e+05 -2.687139626612e+05 -2.666573860079e+05 -2.646716361735e+05 -2.627538623262e+05 -2.609012964480e+05 -2.591112667247e+05 -2.573812046117e+05 -2.557086465965e+05 -2.540912336181e+05 -2.525267073428e+05 -2.510129061131e+05 -2.495477585522e+05 -2.481292777286e+05 -2.467555528543e+05 -2.454247418772e+05 -2.441350608160e+05 -2.428847736182e+05 -2.416721776906e+05 -2.404955876791e+05 -2.393533079686e+05 -2.382435836035e+05 -2.371644781964e+05 -2.361135314736e+05 -2.350866831158e+05 -2.853412932323e+05 -2.827030602374e+05 -2.801606220091e+05 -2.777065489784e+05 -2.753375761009e+05 -2.730509784553e+05 -2.708439558972e+05 -2.687136105504e+05 -2.666570093154e+05 -2.646712404018e+05 -2.627534511873e+05 -2.609008725226e+05 -2.591108317916e+05 -2.573807599760e+05 -2.557081931191e+05 -2.540907717074e+05 -2.525262371341e+05 -2.510124273630e+05 -2.495472708830e+05 -2.481287803562e+05 -2.467550448963e+05 -2.454242216949e+05 -2.441345263328e+05 -2.428842216899e+05 -2.416716041858e+05 -2.404949855122e+05 -2.393526636348e+05 -2.382428642126e+05 -2.371635911279e+05 -2.361121889834e+05 -2.350839026081e+05 -2.853469585098e+05 -2.827043116178e+05 -2.801608793595e+05 -2.777064881426e+05 -2.753373731917e+05 -2.730506936373e+05 -2.708436178794e+05 -2.687132362141e+05 -2.666566099249e+05 -2.646708231788e+05 -2.627530213574e+05 -2.609004334499e+05 -2.591103860640e+05 -2.573803088869e+05 -2.557077377337e+05 -2.540903123930e+05 -2.525257741802e+05 -2.510119601991e+05 -2.495467988249e+05 -2.481283021175e+05 -2.467545590009e+05 -2.454237256708e+05 -2.441340170607e+05 -2.428836946511e+05 -2.416710532098e+05 -2.404944003240e+05 -2.393520247394e+05 -2.382421246030e+05 -2.371626179155e+05 -2.361105678198e+05 -2.350802144923e+05 -2.853554562490e+05 -2.827062438842e+05 -2.801613496981e+05 -2.777064984616e+05 -2.753371835784e+05 -2.730503936167e+05 -2.708432494767e+05 -2.687128241757e+05 -2.666561700011e+05 -2.646703665784e+05 -2.627525554262e+05 -2.608999633570e+05 -2.591099147232e+05 -2.573798386665e+05 -2.557072696302e+05 -2.540898469975e+05 -2.525253109583e+05 -2.510114988636e+05 -2.495463380745e+05 -2.481278402567e+05 -2.467540929046e+05 -2.454232519938e+05 -2.441335308795e+05 -2.428831896510e+05 -2.416705195020e+05 -2.404938228702e+05 -2.393513741607e+05 -2.382413316274e+05 -2.371614854185e+05 -2.361084807991e+05 -2.350750507729e+05 -2.853688100011e+05 -2.827093184993e+05 -2.801621650069e+05 -2.777066109477e+05 -2.753369956241e+05 -2.730500436177e+05 -2.708428030744e+05 -2.687123195893e+05 -2.666556322220e+05 -2.646698121434e+05 -2.627519958604e+05 -2.608994060422e+05 -2.591093647329e+05 -2.573792987850e+05 -2.557067417679e+05 -2.540893315382e+05 -2.525248076630e+05 -2.510110061152e+05 -2.495458539904e+05 -2.481273616034e+05 -2.467536156764e+05 -2.454227701543e+05 -2.441330369780e+05 -2.428826730088e+05 -2.416699652392e+05 -2.404932065832e+05 -2.393506503997e+05 -2.382403928946e+05 -2.371600279680e+05 -2.361055448394e+05 -2.350672907232e+05 -2.853912709908e+05 -2.827144440752e+05 -2.801635542748e+05 -2.777068526732e+05 -2.753367468876e+05 -2.730495333513e+05 -2.708421420821e+05 -2.687115733929e+05 -2.666548425706e+05 -2.646690063738e+05 -2.627511917895e+05 -2.608986159694e+05 -2.591085967124e+05 -2.573785578230e+05 -2.557060301268e+05 -2.540886501161e+05 -2.525241555998e+05 -2.510103811290e+05 -2.495452519469e+05 -2.481267774486e+05 -2.467530423693e+05 -2.454221981343e+05 -2.441324525714e+05 -2.428820579165e+05 -2.416692930062e+05 -2.404924360872e+05 -2.393497060609e+05 -2.382391013561e+05 -2.371578913091e+05 -2.361009517079e+05 -2.350545432156e+05 -2.854331624726e+05 -2.827236925270e+05 -2.801659398280e+05 -2.777072162897e+05 -2.753362450489e+05 -2.730485576284e+05 -2.708408941132e+05 -2.687101792473e+05 -2.666533841133e+05 -2.646675365789e+05 -2.627497447546e+05 -2.608972130276e+05 -2.591072510245e+05 -2.573772770101e+05 -2.557048179877e+05 -2.540875071663e+05 -2.525230800672e+05 -2.510093689336e+05 -2.495442964631e+05 -2.481258683703e+05 -2.467521652642e+05 -2.454213329010e+05 -2.441315715014e+05 -2.428811226803e+05 -2.416682520696e+05 -2.404912174607e+05 -2.393481882849e+05 -2.382369930176e+05 -2.371542829757e+05 -2.360927740130e+05 -2.350309929633e+05 -2.855250285914e+05 -2.827434656988e+05 -2.801701659110e+05 -2.777072820049e+05 -2.753347482249e+05 -2.730462043619e+05 -2.708380046885e+05 -2.687069766511e+05 -2.666500378385e+05 -2.646641705064e+05 -2.627464443355e+05 -2.608940339479e+05 -2.591042272141e+05 -2.573744272524e+05 -2.557021502921e+05 -2.540850215147e+05 -2.525207695903e+05 -2.510072201746e+05 -2.495422884259e+05 -2.481239713546e+05 -2.467503396618e+05 -2.454195290171e+05 -2.441297305385e+05 -2.428791799267e+05 -2.416661390206e+05 -2.404888473524e+05 -2.393453673388e+05 -2.382330794494e+05 -2.371470689668e+05 -2.360751017196e+05 -2.349796967741e+05 -2.857732534870e+05 -2.828063378227e+05 -2.801835246709e+05 -2.777055944851e+05 -2.753281132420e+05 -2.730376828640e+05 -2.708286216759e+05 -2.686971663946e+05 -2.666400524747e+05 -2.646541904760e+05 -2.627366075789e+05 -2.608844451346e+05 -2.590949628100e+05 -2.573655398778e+05 -2.556936730257e+05 -2.540769716780e+05 -2.525131517527e+05 -2.510000284850e+05 -2.495355088992e+05 -2.481175839391e+05 -2.467443198422e+05 -2.454138481164e+05 -2.441243519164e+05 -2.428740408408e+05 -2.416610917184e+05 -2.404834929664e+05 -2.393386182756e+05 -2.382220419693e+05 -2.371242312701e+05 -2.360212805531e+05 -2.348432862903e+05 -2.868291868275e+05 -2.832119868680e+05 -2.803352015945e+05 -2.777430454404e+05 -2.753099754385e+05 -2.729907086913e+05 -2.707660008608e+05 -2.686258811632e+05 -2.665640391088e+05 -2.645757861883e+05 -2.626572532935e+05 -2.608050472145e+05 -2.590160901666e+05 -2.572875368984e+05 -2.556167269515e+05 -2.540011533413e+05 -2.524384395239e+05 -2.509263197076e+05 -2.494626197017e+05 -2.480452345044e+05 -2.466720980427e+05 -2.453411358594e+05 -2.440501834016e+05 -2.427968319796e+05 -2.415781211184e+05 -2.403898910404e+05 -2.392253542637e+05 -2.380717989925e+05 -2.369026584710e+05 -2.356577056536e+05 -2.341786560895e+05 -2.790973514609e+05 -2.791278712797e+05 -2.783628100595e+05 -2.769882796465e+05 -2.752957428022e+05 -2.734405303660e+05 -2.715103875146e+05 -2.695570042377e+05 -2.676116489138e+05 -2.656934672932e+05 -2.638141569254e+05 -2.619807355065e+05 -2.601972457109e+05 -2.584658413194e+05 -2.567875005854e+05 -2.551625136008e+05 -2.535908305553e+05 -2.520723302872e+05 -2.506070472124e+05 -2.491953943900e+05 -2.478384148024e+05 -2.465381037339e+05 -2.452978636086e+05 -2.441232086923e+05 -2.430229330242e+05 -2.420111835481e+05 -2.411113860733e+05 -2.403641778626e+05 -2.398444215144e+05 -2.396997381930e+05 -2.401848430148e+05 
        </DataArray>
        <DataArray type="Float64" Name="STRESS_ZZ" format="ascii">
          -2.858701989890e+05 -2.832206740103e+05 -2.806671278415e+05 -2.782015090826e+05 -2.758207599737e+05 -2.735223493107e+05 -2.713036160821e+05 -2.691617544136e+05 -2.670938897039e+05 -2.650971453693e+05 -2.631686887363e+05 -2.613057600057e+05 -2.595056894668e+05 -2.577659065843e+05 -2.560839436407e+05 -2.544574357568e+05 -2.528841187361e+05 -2.513618251736e+05 -2.498884793355e+05 -2.484620910135e+05 -2.470807487701e+05 -2.457426122176e+05 -2.444459032627e+05 -2.431888956892e+05 -2.419699025024e+05 -2.407872580183e+05 -2.396392864035e+05 -2.385242295810e+05 -2.374400485844e+05 -2.363838183580e+05 -2.353494436697e+05 -2.831377686237e+05 -2.805621343443e+05 -2.780820594487e+05 -2.756875566664e+05 -2.733753922646e+05 -2.711430942882e+05 -2.689881040727e+05 -2.669077214800e+05 -2.648991731827e+05 -2.629596782634e+05 -2.610864942560e+05 -2.592769466185e+05 -2.575284463437e+05 -2.558384993024e+05 -2.542047101386e+05 -2.526247826166e+05 -2.510965177553e+05 -2.496178101112e+05 -2.481866427715e+05 -2.468010813342e+05 -2.454592673159e+05 -2.441594106206e+05 -2.428997808523e+05 -2.416786970578e+05 -2.404945153711e+05 -2.393456122091e+05 -2.382303562802e+05 -2.371470484919e+05 -2.360937628418e+05 -2.350678717068e+05 -2.340643761923e+05 -2.750454821793e+05 -2.726886735320e+05 -2.704261881487e+05 -2.682423010707e+05 -2.661332563889e+05 -2.640967572380e+05 -2.621305479167e+05 -2.602322413972e+05 -2.583993641923e+05 -2.566294187394e+05 -2.549199298816e+05 -2.532684754540e+05 -2.516727053177e+05 -2.501303514824e+05 -2.486392332753e+05 -2.471972577062e+05 -2.458024190625e+05 -2.444527949530e+05 -2.431465429350e+05 -2.418818936519e+05 -2.406571458999e+05 -2.394706580815e+05 -2.383208414126e+05 -2.372061485414e+05 -2.361250637225e+05 -2.350760876096e+05 -2.340577213461e+05 -2.330684401149e+05 -2.321066526284e+05 -2.311706112330e+05 -2.302585641319e+05 -2.619043084599e+05 -2.599028342001e+05 -2.579936956251e+05 -2.561518339673e+05 -2.543726428419e+05 -2.526541087574e+05 -2.509944681669e+05 -2.493918421176e+05 -2.478442442017e+05 -2.463496366187e+05 -2.449059782345e+05 -2.435112570185e+05 -2.421635107697e+05 -2.408608389885e+05 -2.396014088494e+05 -2.383834580789e+05 -2.372052942511e+05 -2.360652932616e+05 -2.349618947726e+05 -2.338935984942e+05 -2.328589575065e+05 -2.318565727641e+05 -2.308850840354e+05 -2.299431621947e+05 -2.290294982815e+05 -2.281427960816e+05 -2.272817703344e+05 -2.264451800915e+05 -2.256319760078e+05 -2.248418394108e+05 -2.240782897929e+05 -2.442192611302e+05 -2.426959363577e+05 -2.412623185022e+05 -2.398807512739e+05 -2.385454761830e+05 -2.372548600301e+05 -2.360078002196e+05 -2.348031019976e+05 -2.336394336249e+05 -2.325153765353e+05 -2.314294733775e+05 -2.303802641774e+05 -2.293663085376e+05 -2.283862004765e+05 -2.274385758393e+05 -2.265221170202e+05 -2.256355536425e+05 -2.247776621416e+05 -2.239472628681e+05 -2.231432168216e+05 -2.223644203231e+05 -2.216097994887e+05 -2.208783028284e+05 -2.201688938206e+05 -2.194805428604e+05 -2.188122257859e+05 -2.181629455608e+05 -2.175318419258e+05 -2.169185945851e+05 -2.163248042843e+05 -2.157610825624e+05 -2.226700229892e+05 -2.217292184034e+05 -2.208750078687e+05 -2.200543128334e+05 -2.192599586556e+05 -2.184907714217e+05 -2.177464537241e+05 -2.170266426623e+05 -2.163308046927e+05 -2.156582749220e+05 -2.150083082397e+05 -2.143801163649e+05 -2.137728950938e+05 -2.131858403854e+05 -2.126181598656e+05 -2.120690774244e+05 -2.115378372860e+05 -2.110237036419e+05 -2.105259610536e+05 -2.100439103166e+05 -2.095768661317e+05 -2.091241507345e+05 -2.086850893368e+05 -2.082590013981e+05 -2.078451975572e+05 -2.074429845645e+05 -2.070517169942e+05 -2.066709972316e+05 -2.063013912742e+05 -2.059468325921e+05 -2.056265708466e+05 -1.980848689711e+05 -1.978084505289e+05 -1.976152367522e+05 -1.974344264065e+05 -1.972572050390e+05 -1.970829178409e+05 -1.969121828726e+05 -1.967455859952e+05 -1.965835027470e+05 -1.964261282496e+05 -1.962735285216e+05 -1.961256825375e+05 -1.959825113320e+05 -1.958438984247e+05 -1.957097022819e+05 -1.955797653358e+05 -1.954539182145e+05 -1.953319829893e+05 -1.952137725205e+05 -1.950990903885e+05 -1.949877273862e+05 -1.948794589358e+05 -1.947740383282e+05 -1.946711925010e+05 -1.945706189456e+05 -1.944720030869e+05 -1.943750980067e+05 -1.942800333818e+05 -1.941883813190e+05 -1.941067289653e+05 -1.940641727335e+05 -1.714088922079e+05 -1.718529946180e+05 -1.723769074762e+05 -1.728903774158e+05 -1.733827700422e+05 -1.738539825736e+05 -1.743056225836e+05 -1.747393030629e+05 -1.751563850386e+05 -1.755579954212e+05 -1.759450798986e+05 -1.763184491259e+05 -1.766788112662e+05 -1.770267953283e+05 -1.773629665790e+05 -1.776878379419e+05 -1.780018767329e+05 -1.783055091235e+05 -1.785991221323e+05 -1.788830642635e+05 -1.791576440253e+05 -1.794231269270e+05 -1.796797315214e+05 -1.799276255687e+05 -1.801669274259e+05 -1.803977313893e+05 -1.806202226230e+05 -1.808350987986e+05 -1.810450179397e+05 -1.812594290838e+05 -1.815181024098e+05 -1.436677700128e+05 -1.448605067091e+05 -1.461300180344e+05 -1.473654355641e+05 -1.485541607344e+05 -1.496966462400e+05 -1.507955220556e+05 -1.518534650595e+05 -1.528728587411e+05 -1.538557968609e+05 -1.548041395357e+05 -1.557195611643e+05 -1.566035880289e+05 -1.574576234858e+05 -1.582829681800e+05 -1.590808320020e+05 -1.598523443443e+05 -1.605985592469e+05 -1.613204608173e+05 -1.620189639151e+05 -1.626949150198e+05 -1.633490893172e+05 -1.639821890854e+05 -1.645948400664e+05 -1.651875969315e+05 -1.657609780327e+05 -1.663156159038e+05 -1.668527943057e+05 -1.673762881384e+05 -1.678984930869e+05 -1.684702606837e+05 -1.159285156775e+05 -1.178686536405e+05 -1.198834111148e+05 -1.218406173226e+05 -1.237255831802e+05 -1.255392846872e+05 -1.272853602009e+05 -1.289675436698e+05 -1.305892358457e+05 -1.321534959176e+05 -1.336630953433e+05 -1.351205712598e+05 -1.365282659213e+05 -1.378883577619e+05 -1.392028811331e+05 -1.404737430963e+05 -1.417027337894e+05 -1.428915363249e+05 -1.440417306821e+05 -1.451547982785e+05 -1.462321220665e+05 -1.472749876667e+05 -1.482845796564e+05 -1.492619814715e+05 -1.502081818224e+05 -1.511241219595e+05 -1.520108768378e+05 -1.528703081738e+05 -1.537072856357e+05 -1.545370990237e+05 -1.554216459988e+05 -8.925886225997e+04 -9.191536337180e+04 -9.464606376880e+04 -9.729701718578e+04 -9.985128985418e+04 -1.023102980648e+05 -1.046786258725e+05 -1.069610102592e+05 -1.091618231934e+05 -1.112850452456e+05 -1.133343210978e+05 -1.153130140200e+05 -1.172242504982e+05 -1.190709514790e+05 -1.208558568119e+05 -1.225815420317e+05 -1.242504333404e+05 -1.258648167680e+05 -1.274268460094e+05 -1.289385456717e+05 -1.304018152447e+05 -1.318184286412e+05 -1.331900339415e+05 -1.345181517894e+05 -1.358041869985e+05 -1.370494823753e+05 -1.382555330700e+05 -1.394247404307e+05 -1.405629851536e+05 -1.416882297462e+05 -1.428729356218e+05 -6.468726810293e+04 -6.799928005506e+04 -7.138846618029e+04 -7.467818315553e+04 -7.784894368236e+04 -8.090244575929e+04 -8.384409459182e+04 -8.667952668357e+04 -8.941399278234e+04 -9.205231260428e+04 -9.459892784280e+04 -9.705795956001e+04 -9.943325242307e+04 -1.017284094495e+05 -1.039468179313e+05 -1.060916697031e+05 -1.081659750605e+05 -1.101725749839e+05 -1.121141496488e+05 -1.139932247776e+05 -1.158121734117e+05 -1.175732174840e+05 -1.192784276546e+05 -1.209297254590e+05 -1.225288954350e+05 -1.240776479582e+05 -1.255778548543e+05 -1.270323805124e+05 -1.284479315509e+05 -1.298446993740e+05 -1.313047997867e+05 -4.316658660570e+04 -4.704250046452e+04 -5.100576826453e+04 -5.485403988532e+04 -5.856441681038e+04 -6.213854045227e+04 -6.558241331690e+04 -6.890239541415e+04 -7.210447377456e+04 -7.519418524510e+04 -7.817665918074e+04 -8.105667117082e+04 -8.383868901205e+04 -8.652690843002e+04 -8.912528072379e+04 -9.163753321899e+04 -9.406718559124e+04 -9.641756207635e+04 -9.869180107184e+04 -1.008928614338e+05 -1.030235271419e+05 -1.050864097189e+05 -1.070839506108e+05 -1.090184246092e+05 -1.108919543637e+05 -1.127065681055e+05 -1.144644252357e+05 -1.161686577007e+05 -1.178264022223e+05 -1.194593591094e+05 -1.211580823979e+05 -2.554840199320e+04 -2.986015459628e+04 -3.428556918995e+04 -3.858814502594e+04 -4.273920353033e+04 -4.673941731111e+04 -5.059483672995e+04 -5.431215609973e+04 -5.789781892074e+04 -6.135787516992e+04 -6.469798392518e+04 -6.792344377579e+04 -7.103922663238e+04 -7.405000872788e+04 -7.696019662926e+04 -7.977394932763e+04 -8.249519661657e+04 -8.512765386601e+04 -8.767483350216e+04 -9.014005491360e+04 -9.252645167696e+04 -9.483697454808e+04 -9.707438784567e+04 -9.924125782350e+04 -1.013399341495e+05 -1.033725527899e+05 -1.053411970990e+05 -1.072487409046e+05 -1.091021717280e+05 -1.109242567401e+05 -1.128124178576e+05 -1.257958428604e+04 -1.715689419955e+04 -2.189967612727e+04 -2.652257823626e+04 -3.098899430743e+04 -3.529792140204e+04 -3.945456831801e+04 -4.346490877560e+04 -4.733484841752e+04 -5.107014323660e+04 -5.467638914387e+04 -5.815900150921e+04 -6.152319219820e+04 -6.477395275687e+04 -6.791604525910e+04 -7.095399899290e+04 -7.389211019868e+04 -7.673444196059e+04 -7.948482187022e+04 -8.214683443426e+04 -8.472380478500e+04 -8.721877100217e+04 -8.963444430270e+04 -9.197316099498e+04 -9.423684883134e+04 -9.642708620520e+04 -9.854548939475e+04 -1.005950956411e+05 -1.025846081180e+05 -1.045406841405e+05 -1.065607986944e+05 -4.542581295072e+03 -9.550230614096e+03 -1.456144396127e+04 -1.938326403745e+04 -2.401310847369e+04 -2.846833589679e+04 -3.276409878674e+04 -3.691136333107e+04 -4.091815207322e+04 -4.479074387178e+04 -4.853443343245e+04 -5.215395463942e+04 -5.565370099601e+04 -5.903783244926e+04 -6.231032170315e+04 -6.547496898494e+04 -6.853540275603e+04 -7.149507560037e+04 -7.435726256408e+04 -7.712506682182e+04 -7.980144109512e+04 -8.238923703027e+04 -8.489130545146e+04 -8.731068679429e+04 -8.965096858649e+04 -9.191695561695e+04 -9.411593765310e+04 -9.626011506789e+04 -9.837130448497e+04 -1.004901794189e+05 -1.027051828956e+05 -5.784674772307e+03 -4.325428316899e+03 -8.658690217118e+03 -1.397248403639e+04 -1.932870065968e+04 -2.447425210972e+04 -2.935728392402e+04 -3.398490823759e+04 -3.837949141318e+04 -4.256506136986e+04 -4.656336778288e+04 -5.039311118702e+04 -5.407017292298e+04 -5.760810817321e+04 -6.101865238883e+04 -6.431217103681e+04 -6.749803466783e+04 -7.058492634742e+04 -7.358108277917e+04 -7.649447849311e+04 -7.933293691182e+04 -8.210412757081e+04 -8.481534328272e+04 -8.747283529324e+04 -9.008016678985e+04 -9.263431401856e+04 -9.511637913211e+04 -9.746896588791e+04 -9.953940336872e+04 -1.009330534104e+05 -1.003549296747e+05 
        </DataArray>
        <DataArray type="Float64" Name="STRAIN_XX" format="ascii">
          1.591038511329e-06 1.533255373944e-06 1.477772398252e-06 1.424393030409e-06 1.372995739193e-06 1.323477491339e-06 1.275745895802e-06 1.229716300488e-06 1.185310289336e-06 1.142454718061e-06 1.101081026769e-06 1.061124723371e-06 1.022524979863e-06 9.852243097392e-07 9.491683052669e-07 9.143054181893e-07 8.805867720608e-07 8.479660015595e-07 8.163991166167e-07 7.858443874623e-07 7.562622478596e-07 7.276152170275e-07 6.998678431392e-07 6.729866693574e-07 6.469402187852e-07 6.216989879622e-07 5.972354079524e-07 5.735236204515e-07 5.505385424214e-07 5.282524912245e-07 5.066172149988e-07 1.561524588578e-06 1.504541502658e-06 1.449852543926e-06 1.397241443029e-06 1.346584994460e-06 1.297780858393e-06 1.250737765780e-06 1.205372212232e-06 1.161606878349e-06 1.119369655092e-06 1.078592959425e-06 1.039213221081e-06 1.001170483221e-06 9.644080850061e-07 9.288724014929e-07 8.945126269419e-07 8.612805886881e-07 8.291305902386e-07 7.980192765173e-07 7.679055213563e-07 7.387503308161e-07 7.105167677931e-07 6.831698961652e-07 6.566767488239e-07 6.310063153071e-07 6.061295485258e-07 5.820193656437e-07 5.586505574729e-07 5.359992966870e-07 5.140412267892e-07 4.927403397137e-07 1.474116709389e-06 1.419503194227e-06 1.367165822548e-06 1.316830025582e-06 1.268367656753e-06 1.221678432926e-06 1.176674407307e-06 1.133275476075e-06 1.091407569085e-06 1.051001642446e-06 1.011993003939e-06 9.743208145243e-07 9.379276992479e-07 9.027594424912e-07 8.687647348136e-07 8.358949704619e-07 8.041040614743e-07 7.733482941032e-07 7.435861914262e-07 7.147784166500e-07 6.868876696618e-07 6.598786262043e-07 6.337178730673e-07 6.083738954919e-07 5.838170633654e-07 5.600196851010e-07 5.369561128812e-07 5.146030623377e-07 4.929404265717e-07 4.719537149274e-07 4.516432220330e-07 1.332172925825e-06 1.281407973572e-06 1.232889561437e-06 1.186248758808e-06 1.141349454724e-06 1.098094725852e-06 1.056402021679e-06 1.016196762533e-06 9.774101534806e-07 9.399781327030e-07 9.038407033294e-07 8.689414582390e-07 8.352272156554e-07 8.026477298759e-07 7.711554575328e-07 7.407053583479e-07 7.112547360903e-07 6.827630911031e-07 6.551920075327e-07 6.285050430752e-07 6.026676564702e-07 5.776471320108e-07 5.534125440531e-07 5.299347242661e-07 5.071862926620e-07 4.851417473675e-07 4.637777863065e-07 4.430742443517e-07 4.230170735084e-07 4.036078284943e-07 3.849059154053e-07 1.141146486395e-06 1.095562105157e-06 1.052183527743e-06 1.010515539113e-06 9.704114518401e-07 9.317788880133e-07 8.945425741756e-07 8.586353647552e-07 8.239955698558e-07 7.905658271335e-07 7.582924619936e-07 7.271250331430e-07 6.970160015795e-07 6.679204645714e-07 6.397959454856e-07 6.126022104190e-07 5.863011207535e-07 5.608565065987e-07 5.362340629193e-07 5.124012561870e-07 4.893272501406e-07 4.669828476904e-07 4.453404571530e-07 4.243740806856e-07 4.040593595700e-07 3.843737490915e-07 3.652970932035e-07 3.468134389088e-07 3.289169063007e-07 3.116307289637e-07 2.950942034535e-07 9.083762556314e-07 8.691067786737e-07 8.319917452981e-07 7.963834290070e-07 7.621225154319e-07 7.291222333845e-07 6.973161826816e-07 6.666462868639e-07 6.370595107368e-07 6.085066618035e-07 5.809417619949e-07 5.543216453712e-07 5.286056506473e-07 5.037553897639e-07 4.797345537729e-07 4.565087650435e-07 4.340454412984e-07 4.123136922123e-07 3.912842204627e-07 3.709292526379e-07 3.512224677656e-07 3.321389592340e-07 3.136551987028e-07 2.957490511247e-07 2.783998386875e-07 2.615886230709e-07 2.452990820524e-07 2.295204058564e-07 2.142567060479e-07 1.995577887258e-07 1.856609669882e-07 6.428045144698e-07 6.107437060882e-07 5.807756946230e-07 5.520811791957e-07 5.244869124459e-07 4.979126253168e-07 4.723020720327e-07 4.476075212330e-07 4.237858170627e-07 4.007970873802e-07 3.786041442020e-07 3.571721165503e-07 3.364681905670e-07 3.164614075757e-07 2.971225039266e-07 2.784237796124e-07 2.603389949511e-07 2.428432783794e-07 2.259130527712e-07 2.095259693473e-07 1.936608650345e-07 1.782977220632e-07 1.634176567757e-07 1.490029331087e-07 1.350370804768e-07 1.215052680757e-07 1.083955634892e-07 9.570303552699e-08 8.344327316885e-08 7.169665961748e-08 6.081355284336e-08 3.546327984886e-07 3.304006426447e-07 3.081891269332e-07 2.869970033312e-07 2.666367035690e-07 2.470351925271e-07 2.281472858721e-07 2.099364936636e-07 1.923703814470e-07 1.754191877375e-07 1.590552607947e-07 1.432527343354e-07 1.279873113981e-07 1.132360938511e-07 9.897746021706e-08 8.519096060545e-08 7.185723678288e-08 5.895794876755e-08 4.647572281049e-08 3.439410315841e-08 2.269751973686e-08 1.137126250399e-08 4.014809137570e-10 -1.022477991840e-08 -2.051942851622e-08 -3.049283031489e-08 -4.015215427984e-08 -4.949591455900e-08 -5.849595021391e-08 -6.703822966226e-08 -7.464762236402e-08 5.492871522598e-08 3.884959779159e-08 2.470698965832e-08 1.131773665850e-08 -1.519245891738e-09 -1.386916005896e-08 -2.576562166211e-08 -3.723341509991e-08 -4.829382373566e-08 -5.896608653309e-08 -6.926793938461e-08 -7.921588272550e-08 -8.882536225719e-08 -9.811088721398e-08 -1.070861325963e-07 -1.157640072021e-07 -1.241567174609e-07 -1.322758052894e-07 -1.401321939034e-07 -1.477362106001e-07 -1.550976118697e-07 -1.622255836352e-07 -1.691287399809e-07 -1.758150630988e-07 -1.822917205096e-07 -1.885644291325e-07 -1.946353866658e-07 -2.004963770760e-07 -2.061059602674e-07 -2.113143146443e-07 -2.155128480683e-07 -2.448017481633e-07 -2.527076942424e-07 -2.587773424495e-07 -2.643627463991e-07 -2.696761083314e-07 -2.747742786896e-07 -2.796791823063e-07 -2.844038721794e-07 -2.889584707199e-07 -2.933516998982e-07 -2.975913754137e-07 -3.016846363023e-07 -3.056380704179e-07 -3.094578051907e-07 -3.131495640890e-07 -3.167187185308e-07 -3.201703165386e-07 -3.235091112329e-07 -3.267395702201e-07 -3.298658944116e-07 -3.328920181611e-07 -3.358216109145e-07 -3.386580471948e-07 -3.414043404248e-07 -3.440629051481e-07 -3.466348077441e-07 -3.491172463818e-07 -3.514951851281e-07 -3.537135396168e-07 -3.555853245755e-07 -3.563618328848e-07 -5.330615500228e-07 -5.330713283631e-07 -5.313710445400e-07 -5.294508248547e-07 -5.275292047219e-07 -5.256540900972e-07 -5.238359663027e-07 -5.220765509550e-07 -5.203752206476e-07 -5.187305779452e-07 -5.171409069983e-07 -5.156043411397e-07 -5.141189521852e-07 -5.126828026792e-07 -5.112939793288e-07 -5.099506034240e-07 -5.086508412137e-07 -5.073929070911e-07 -5.061750677390e-07 -5.049956309593e-07 -5.038529376480e-07 -5.027453439395e-07 -5.016711917820e-07 -5.006287113575e-07 -4.996157485713e-07 -4.986288724518e-07 -4.976604224167e-07 -4.966886307759e-07 -4.956446994640e-07 -4.943034257679e-07 -4.917687187007e-07 -7.988171190453e-07 -7.914758423184e-07 -7.826010810680e-07 -7.737605716193e-07 -7.651701555473e-07 -7.568679120978e-07 -7.488534790257e-07 -7.411180301461e-07 -7.336509858105e-07 -7.264415958187e-07 -7.194793443176e-07 -7.127540694930e-07 -7.062560017278e-07 -6.999757763506e-07 -6.939044331539e-07 -6.880334106476e-07 -6.823545321531e-07 -6.768599907508e-07 -6.715423309354e-07 -6.663944312391e-07 -6.614094796136e-07 -6.565809444829e-07 -6.519025235756e-07 -6.473680294539e-07 -6.429710581609e-07 -6.387039649407e-07 -6.345544983836e-07 -6.304944874573e-07 -6.264415606318e-07 -6.221303150294e-07 -6.165024164951e-07 -1.031960945525e-06 -1.018009177389e-06 -1.002817444911e-06 -9.879062788909e-07 -9.734689119646e-07 -9.595317803367e-07 -9.460850189518e-07 -9.331106738054e-07 -9.205893689768e-07 -9.085020249432e-07 -8.968303069554e-07 -8.855567181948e-07 -8.746645904680e-07 -8.641380457818e-07 -8.539619576049e-07 -8.441219183739e-07 -8.346042076118e-07 -8.253957557668e-07 -8.164841094375e-07 -8.078573962927e-07 -7.995042825434e-07 -7.914139131841e-07 -7.835758284164e-07 -7.759798218070e-07 -7.686156105181e-07 -7.614718195495e-07 -7.545324230527e-07 -7.477639305805e-07 -7.410701206914e-07 -7.341368498445e-07 -7.257028381268e-07 -1.223860846140e-06 -1.204015649153e-06 -1.183555911624e-06 -1.163658765775e-06 -1.144428421481e-06 -1.125867791643e-06 -1.107959802937e-06 -1.090681583913e-06 -1.074008184970e-06 -1.057914301459e-06 -1.042375198100e-06 -1.027367146761e-06 -1.012867580616e-06 -9.988551031123e-07 -9.853094315381e-07 -9.722113159208e-07 -9.595424520304e-07 -9.472853971291e-07 -9.354234898741e-07 -9.239407751983e-07 -9.128219421610e-07 -9.020522931039e-07 -8.916177672539e-07 -8.815050251602e-07 -8.717014668870e-07 -8.621944867988e-07 -8.529672265385e-07 -8.439813591814e-07 -8.351161781029e-07 -8.259678196507e-07 -8.149700378010e-07 -1.368594851098e-06 -1.342688026750e-06 -1.317802982640e-06 -1.294117073228e-06 -1.271375705970e-06 -1.249447100571e-06 -1.228271222582e-06 -1.207816439773e-06 -1.188059428946e-06 -1.168977874650e-06 -1.150548552648e-06 -1.132747318122e-06 -1.115549601718e-06 -1.098930924366e-06 -1.082867297975e-06 -1.067335506415e-06 -1.052313298778e-06 -1.037779533813e-06 -1.023714310839e-06 -1.010099116704e-06 -9.969170083143e-07 -9.841528272284e-07 -9.717933768891e-07 -9.598273184454e-07 -9.482440725249e-07 -9.370297704639e-07 -9.261549971309e-07 -9.155402626453e-07 -9.049614447264e-07 -8.937930903372e-07 -8.800623523449e-07 -1.464397035526e-06 -1.432924346400e-06 -1.402936855244e-06 -1.375172474792e-06 -1.349200699175e-06 -1.324635468307e-06 -1.301215311349e-06 -1.278771447144e-06 -1.257193093719e-06 -1.236404283175e-06 -1.216349915008e-06 -1.196987582295e-06 -1.178282779512e-06 -1.160206061690e-06 -1.142731328762e-06 -1.125834755074e-06 -1.109494076189e-06 -1.093688048086e-06 -1.078395947151e-06 -1.063596994368e-06 -1.049269567473e-06 -1.035390004761e-06 -1.021930682093e-06 -1.008856803220e-06 -9.961208790613e-07 -9.836529667093e-07 -9.713429537477e-07 -9.590075955398e-07 -9.463277700806e-07 -9.327266741889e-07 -9.170305761281e-07 -1.437450129647e-06 -1.440107009217e-06 -1.423516321822e-06 -1.401313768998e-06 -1.377444818956e-06 -1.353360604022e-06 -1.329638833581e-06 -1.306518906940e-06 -1.284096701187e-06 -1.262402611437e-06 -1.241435657435e-06 -1.221179520204e-06 -1.201610530749e-06 -1.182701826775e-06 -1.164425589438e-06 -1.146754291071e-06 -1.129661443389e-06 -1.113122129781e-06 -1.097113513971e-06 -1.081615496193e-06 -1.066611733662e-06 -1.052091372813e-06 -1.038052132493e-06 -1.024506021344e-06 -1.011490428115e-06 -9.990907251843e-07 -9.874888014702e-07 -9.770728061806e-07 -9.686976066268e-07 -9.643298658001e-07 -9.691955187956e-07 
        </DataArray>
        <DataArray type="Float64" Name="STRAIN_XY" format="ascii">
          5.290146090705e-09 3.552916474515e-09 2.569605648948e-09 1.923565632792e-09 1.481976289982e-09 1.174642772272e-09 9.581563182724e-10 8.038799241914e-10 6.924373978900e-10 6.105591338243e-10 5.490743708959e-10 5.015788025774e-10 4.635310643052e-10 4.316326827040e-10 4.033918015431e-10 3.768117691278e-10 3.501562784665e-10 3.217642016150e-10 2.898861845960e-10 2.525307265378e-10 2.073013782739e-10 1.512163194062e-10 8.049149543019e-11 -9.718335916499e-12 -1.256263553533e-10 -2.751367972934e-10 -4.680495781504e-10 -7.156283721546e-10 -1.027775821536e-09 -1.401995124692e-09 -1.770013761626e-09 5.997338585996e-07 5.831498740413e-07 5.669687296852e-07 5.513549384873e-07 5.363075858016e-07 5.218051300743e-07 5.078231945592e-07 4.943381191556e-07 4.813275545249e-07 4.687704627891e-07 4.566470177136e-07 4.449384991146e-07 4.336272030662e-07 4.226963639654e-07 4.121300923616e-07 4.019133146175e-07 3.920317243237e-07 3.824717357569e-07 3.732204498014e-07 3.642656165609e-07 3.555956082972e-07 3.471993897957e-07 3.390665004365e-07 3.311870264646e-07 3.235515581388e-07 3.161510564124e-07 3.089764311353e-07 3.020171047007e-07 2.952562281758e-07 2.886548830972e-07 2.820780805449e-07 1.176446986124e-06 1.143895261514e-06 1.112151083904e-06 1.081522597377e-06 1.052005829526e-06 1.023558057811e-06 9.961313622775e-07 9.696793080122e-07 9.441580509126e-07 9.195263232084e-07 8.957452322645e-07 8.727780573189e-07 8.505900702062e-07 8.291483860103e-07 8.084218319456e-07 7.883808403674e-07 7.689973464706e-07 7.502447052114e-07 7.320976097049e-07 7.145320320738e-07 6.975251600618e-07 6.810553527851e-07 6.651020890044e-07 6.496459250585e-07 6.346684016132e-07 6.201518044133e-07 6.060783429856e-07 5.924274129466e-07 5.791664316935e-07 5.662206155007e-07 5.533313212510e-07 1.708003962170e-06 1.660692506289e-06 1.614597667249e-06 1.570129672694e-06 1.527277190242e-06 1.485977004768e-06 1.446159288646e-06 1.407756573211e-06 1.370705190472e-06 1.334945225558e-06 1.300420214644e-06 1.267076845734e-06 1.234864698338e-06 1.203736028447e-06 1.173645583365e-06 1.144550435524e-06 1.116409839754e-06 1.089185107922e-06 1.062839504564e-06 1.037338145469e-06 1.012647915138e-06 9.887373897598e-07 9.655767801102e-07 9.431378592531e-07 9.213938439057e-07 9.003190453188e-07 8.798877456197e-07 8.600703914727e-07 8.408208881981e-07 8.220346293711e-07 8.033518092215e-07 2.174006242399e-06 2.113686807037e-06 2.055001188969e-06 1.998399837282e-06 1.943857611910e-06 1.891291758904e-06 1.840612908396e-06 1.791735073827e-06 1.744577199539e-06 1.699063020871e-06 1.655120671386e-06 1.612682292833e-06 1.571683713787e-06 1.532064165675e-06 1.493766049450e-06 1.456734724317e-06 1.420918332977e-06 1.386267637582e-06 1.352735881118e-06 1.320278659605e-06 1.288853822645e-06 1.258421379102e-06 1.228943418277e-06 1.200384018862e-06 1.172709107968e-06 1.145886053657e-06 1.119882334960e-06 1.094661037145e-06 1.070165813073e-06 1.046271171720e-06 1.022549434384e-06 2.556577485713e-06 2.485475395008e-06 2.416438367853e-06 2.349875207040e-06 2.285738295664e-06 2.223926461930e-06 2.164333775213e-06 2.106858949711e-06 2.051406632406e-06 1.997887137506e-06 1.946215950118e-06 1.896313280782e-06 1.848103667970e-06 1.801515656260e-06 1.756481509695e-06 1.712936980915e-06 1.670821088457e-06 1.630075935372e-06 1.590646534071e-06 1.552480676608e-06 1.515528798655e-06 1.479743879334e-06 1.445081335831e-06 1.411498944083e-06 1.378956670284e-06 1.347416254499e-06 1.316839802173e-06 1.287185087197e-06 1.258389760908e-06 1.230319155826e-06 1.202521405485e-06 2.841052753318e-06 2.761776831768e-06 2.685020531337e-06 2.611048952761e-06 2.539781000156e-06 2.471098229507e-06 2.404881639616e-06 2.341018402947e-06 2.279402509227e-06 2.219934288910e-06 2.162519834863e-06 2.107070485063e-06 2.053502392128e-06 2.001736155224e-06 1.951696514908e-06 1.903312078237e-06 1.856515086842e-06 1.811241202265e-06 1.767429332168e-06 1.725021462615e-06 1.683962525499e-06 1.644200269647e-06 1.605685171102e-06 1.568370325116e-06 1.532211304275e-06 1.497165755351e-06 1.463192131152e-06 1.430245348062e-06 1.398262241209e-06 1.367113318270e-06 1.336376338594e-06 3.016545512010e-06 2.931980645199e-06 2.850427670959e-06 2.771884543065e-06 2.696223052597e-06 2.623308473771e-06 2.553012538910e-06 2.485215050272e-06 2.419803377797e-06 2.356671696185e-06 2.295720312514e-06 2.236855101790e-06 2.179987050558e-06 2.125031868135e-06 2.071909659828e-06 2.020544635164e-06 1.970864860500e-06 1.922802037692e-06 1.876291311582e-06 1.831271096443e-06 1.787682930584e-06 1.745471352985e-06 1.704583798507e-06 1.664970501228e-06 1.626584370468e-06 1.589380697273e-06 1.553316199937e-06 1.518345770036e-06 1.484411485670e-06 1.451406042819e-06 1.419000839938e-06 3.076371403509e-06 2.989556237825e-06 2.906305479457e-06 2.826201676688e-06 2.749052670744e-06 2.674708005627e-06 2.603034076560e-06 2.533907722922e-06 2.467213977268e-06 2.402844920174e-06 2.340698897152e-06 2.280679941635e-06 2.222697295343e-06 2.166665022177e-06 2.112501658270e-06 2.060129930527e-06 2.009476495078e-06 1.960471722485e-06 1.913049486014e-06 1.867146997731e-06 1.822704653369e-06 1.779665917012e-06 1.737977206531e-06 1.697587821336e-06 1.658449861526e-06 1.620518111403e-06 1.583749643242e-06 1.548102478204e-06 1.513530908575e-06 1.479969659359e-06 1.447258993622e-06 3.018314151067e-06 2.932305599320e-06 2.850510156111e-06 2.771914089189e-06 2.696240166526e-06 2.623321914271e-06 2.553024222793e-06 2.485225415855e-06 2.419812548662e-06 2.356679728430e-06 2.295727251935e-06 2.236860995231e-06 2.179991949345e-06 2.125035822335e-06 2.071912722860e-06 2.020546863577e-06 1.970866317317e-06 1.922802786003e-06 1.876291422345e-06 1.831270649227e-06 1.787682022020e-06 1.745470095941e-06 1.704582348161e-06 1.664969110208e-06 1.626583577703e-06 1.589381924548e-06 1.553323790548e-06 1.518373807623e-06 1.484506507048e-06 1.451721909223e-06 1.420118387898e-06 2.844727128098e-06 2.762450683780e-06 2.685191838062e-06 2.611110202475e-06 2.539816194448e-06 2.471125650151e-06 2.404905332914e-06 2.341039317457e-06 2.279420927344e-06 2.219950356530e-06 2.162533666633e-06 2.107082194050e-06 2.053512091009e-06 2.001743959826e-06 1.951702537463e-06 1.903316438664e-06 1.856517911263e-06 1.811242631211e-06 1.767429513350e-06 1.725020566071e-06 1.683960747877e-06 1.644197861289e-06 1.605682466599e-06 1.568367871528e-06 1.532210227652e-06 1.497169017971e-06 1.463208741364e-06 1.430304549505e-06 1.398460676280e-06 1.367770556681e-06 1.338700462416e-06 2.562475952313e-06 2.486553526404e-06 2.416714596797e-06 2.349974393200e-06 2.285794530591e-06 2.223969573053e-06 2.164370658599e-06 2.106891293909e-06 2.051434950906e-06 1.997911700535e-06 1.946236989224e-06 1.896331011047e-06 1.848118298217e-06 1.801527389614e-06 1.756490549719e-06 1.712943524438e-06 1.670825340950e-06 1.630078119236e-06 1.590646905903e-06 1.552479526436e-06 1.515526475185e-06 1.479740815190e-06 1.445078113418e-06 1.411496455881e-06 1.378956721247e-06 1.347423589736e-06 1.316868952681e-06 1.287283130463e-06 1.258711762337e-06 1.231377252922e-06 1.206259434461e-06 2.182750567774e-06 2.115274625094e-06 2.055419678251e-06 1.998556545413e-06 1.943945545583e-06 1.891356251766e-06 1.840666324518e-06 1.791781277664e-06 1.744617507018e-06 1.699097954393e-06 1.655150542877e-06 1.612707393003e-06 1.571704348912e-06 1.532080664235e-06 1.493778758959e-06 1.456744011628e-06 1.420924579817e-06 1.386271251851e-06 1.352737307169e-06 1.320278386161e-06 1.288852379117e-06 1.258419359067e-06 1.228941577695e-06 1.200383618981e-06 1.172712969653e-06 1.145901804431e-06 1.119932573215e-06 1.094816292649e-06 1.070654082183e-06 1.047845568008e-06 1.028106939536e-06 1.720849714040e-06 1.662975422004e-06 1.615239558724e-06 1.570415907516e-06 1.527452491446e-06 1.486097268181e-06 1.446246209184e-06 1.407822678444e-06 1.370758046598e-06 1.334989075143e-06 1.300457260660e-06 1.267108206130e-06 1.234891007132e-06 1.203757751705e-06 1.173663153621e-06 1.144564286616e-06 1.116420390734e-06 1.089192734184e-06 1.062844527303e-06 1.037340886898e-06 1.012648860451e-06 9.887375251435e-07 9.655781821029e-07 9.431446722348e-07 9.214139867464e-07 9.003680625246e-07 8.800006183776e-07 8.603439012399e-07 8.415685786788e-07 8.243378311852e-07 8.115388686473e-07 1.196442849918e-06 1.147093313074e-06 1.112958244889e-06 1.082033520092e-06 1.052476389948e-06 1.023958243027e-06 9.964330296666e-07 9.698836201216e-07 9.442821949225e-07 9.195915594120e-07 8.957707370308e-07 8.727787180404e-07 8.505763313379e-07 8.291269846790e-07 8.083968415259e-07 7.883547612978e-07 7.689721631839e-07 7.502228744436e-07 7.320829728741e-07 7.145305978467e-07 6.975456531994e-07 6.811092656094e-07 6.652028248177e-07 6.498064794547e-07 6.348974161008e-07 6.204502160773e-07 6.064485292139e-07 5.929399051015e-07 5.802363027113e-07 5.695787915527e-07 5.660920988255e-07 6.478352096602e-07 5.885681526576e-07 5.631525563530e-07 5.463147681607e-07 5.321263294675e-07 5.188270644451e-07 5.059100500593e-07 4.932544766131e-07 4.808546541358e-07 4.687329931635e-07 4.569126167515e-07 4.454098595411e-07 4.342333147322e-07 4.233848059551e-07 4.128606803893e-07 4.026529028471e-07 3.927498189200e-07 3.831366013698e-07 3.737954307930e-07 3.647055056385e-07 3.558430601271e-07 3.471817522244e-07 3.386942112061e-07 3.303566002368e-07 3.221606297825e-07 3.141439689858e-07 3.064667985318e-07 2.996066770884e-07 2.948638041997e-07 2.956978668597e-07 3.126830030454e-07 -4.462130655589e-08 1.654441597169e-08 2.685510588310e-08 2.538516825114e-08 2.125237822582e-08 1.707556824829e-08 1.353137687462e-08 1.070605002260e-08 8.517304350562e-09 6.849483593230e-09 5.595600236595e-09 4.668187098744e-09 3.999836505549e-09 3.540713967592e-09 3.255592607488e-09 3.121241773594e-09 3.124377907092e-09 3.260148800898e-09 3.531036857604e-09 3.946000445840e-09 4.519574383180e-09 5.270433783429e-09 6.218427674381e-09 7.377922289121e-09 8.742553251518e-09 1.024974161009e-08 1.169626082310e-08 1.253167169402e-08 1.133774936552e-08 4.478914382896e-09 -1.871011239820e-08 
        </DataArray>
        <DataArray type="Float64" Name="STRAIN_YY" format="ascii">
          -1.479289733305e-06 -1.450624770386e-06 -1.423025247890e-06 -1.396440133491e-06 -1.370822758649e-06 -1.346129182982e-06 -1.322317936572e-06 -1.299349825161e-06 -1.277187765983e-06 -1.255796643582e-06 -1.235143180704e-06 -1.215195821306e-06 -1.195924623656e-06 -1.177301162066e-06 -1.159298436101e-06 -1.141890786407e-06 -1.125053816417e-06 -1.108764319381e-06 -1.093000210166e-06 -1.077740461408e-06 -1.062965043588e-06 -1.048654868683e-06 -1.034791737037e-06 -1.021358287119e-06 -1.008337947839e-06 -9.957148932065e-07 -9.834739992814e-07 -9.716008040732e-07 -9.600814734225e-07 -9.489027836539e-07 -9.380519391393e-07 -1.479289582264e-06 -1.450624388915e-06 -1.423024818779e-06 -1.396439688954e-06 -1.370822306112e-06 -1.346128724546e-06 -1.322317473148e-06 -1.299349357362e-06 -1.277187294321e-06 -1.255796168514e-06 -1.235142702643e-06 -1.215195340619e-06 -1.195924140674e-06 -1.177300677084e-06 -1.159297949382e-06 -1.141890298179e-06 -1.125053326880e-06 -1.108763828708e-06 -1.092999718511e-06 -1.077739968904e-06 -1.062964550346e-06 -1.048654374796e-06 -1.034791242578e-06 -1.021357792129e-06 -1.008337452298e-06 -9.957143969380e-07 -9.834735016166e-07 -9.716003027201e-07 -9.600809607166e-07 -9.489022342004e-07 -9.380512607523e-07 -1.479289174674e-06 -1.450623274639e-06 -1.423023560246e-06 -1.396438385127e-06 -1.370820979676e-06 -1.346127381804e-06 -1.322316116759e-06 -1.299347989081e-06 -1.277185915599e-06 -1.255794780634e-06 -1.235141306765e-06 -1.215193937787e-06 -1.195922731821e-06 -1.177299263036e-06 -1.159296530874e-06 -1.141888875861e-06 -1.125051901321e-06 -1.108762400404e-06 -1.092998287896e-06 -1.077738536352e-06 -1.062963116177e-06 -1.048652939269e-06 -1.034789805892e-06 -1.021356354398e-06 -1.008336013461e-06 -9.957129564524e-07 -9.834720574231e-07 -9.715988477812e-07 -9.600794714733e-07 -9.489006325209e-07 -9.380492628995e-07 -1.479288654001e-06 -1.450621522408e-06 -1.423021562771e-06 -1.396436315294e-06 -1.370818876638e-06 -1.346125256058e-06 -1.322313972461e-06 -1.299345828862e-06 -1.277183741609e-06 -1.255792594778e-06 -1.235139110742e-06 -1.215191733126e-06 -1.195920519897e-06 -1.177297045083e-06 -1.159294307983e-06 -1.141886649000e-06 -1.125049671349e-06 -1.108760168075e-06 -1.092996053852e-06 -1.077736301143e-06 -1.062960880267e-06 -1.048650703047e-06 -1.034787569645e-06 -1.021354118268e-06 -1.008333777301e-06 -9.957107192920e-07 -9.834698156482e-07 -9.715965890341e-07 -9.600771544014e-07 -9.488981200041e-07 -9.380460568880e-07 -1.479288258234e-06 -1.450619277737e-06 -1.423018962013e-06 -1.396433618823e-06 -1.370816142465e-06 -1.346122498961e-06 -1.322311197761e-06 -1.299343039671e-06 -1.277180940401e-06 -1.255789783731e-06 -1.235136291819e-06 -1.215188908091e-06 -1.195917690340e-06 -1.177294212438e-06 -1.159291473532e-06 -1.141883813870e-06 -1.125046836525e-06 -1.108757334425e-06 -1.092993222138e-06 -1.077733472009e-06 -1.062958054243e-06 -1.048647880553e-06 -1.034784750988e-06 -1.021351303569e-06 -1.008330966248e-06 -9.957079103334e-07 -9.834670032459e-07 -9.715937544368e-07 -9.600742349699e-07 -9.488949080320e-07 -9.380417976652e-07 -1.479288321203e-06 -1.450616718202e-06 -1.423015916017e-06 -1.396430456930e-06 -1.370812945826e-06 -1.346119287059e-06 -1.322307976735e-06 -1.299339812665e-06 -1.277177709783e-06 -1.255786551564e-06 -1.235133059981e-06 -1.215185678304e-06 -1.195914464155e-06 -1.177290991228e-06 -1.159288258517e-06 -1.141880606137e-06 -1.125043637036e-06 -1.108754144010e-06 -1.092990041505e-06 -1.077730301759e-06 -1.062954894867e-06 -1.048644732425e-06 -1.034781614336e-06 -1.021348178375e-06 -1.008327851908e-06 -9.957048044859e-07 -9.834638978425e-07 -9.715906225608e-07 -9.600709869171e-07 -9.488912463633e-07 -9.380366409880e-07 -1.479289286384e-06 -1.450614031315e-06 -1.423012576353e-06 -1.396426982036e-06 -1.370809447256e-06 -1.346115790114e-06 -1.322304488179e-06 -1.299336335251e-06 -1.277174245364e-06 -1.255783101737e-06 -1.235129626189e-06 -1.215182261866e-06 -1.195911066271e-06 -1.177287612980e-06 -1.159284900856e-06 -1.141877269894e-06 -1.125040322929e-06 -1.108750852647e-06 -1.092986773379e-06 -1.077727057258e-06 -1.062951674279e-06 -1.048641535923e-06 -1.034778441919e-06 -1.021345029734e-06 -1.008324725940e-06 -9.957016976653e-07 -9.834607986953e-07 -9.715874931480e-07 -9.600677011621e-07 -9.488873863221e-07 -9.380306860356e-07 -1.479291745416e-06 -1.450611388136e-06 -1.423009050671e-06 -1.396423298363e-06 -1.370805759718e-06 -1.346112132013e-06 -1.322300867088e-06 -1.299332753268e-06 -1.277170703455e-06 -1.255779600636e-06 -1.235126166596e-06 -1.215178844430e-06 -1.195907691580e-06 -1.177284281539e-06 -1.159281613103e-06 -1.141874026178e-06 -1.125037123505e-06 -1.108747697670e-06 -1.092983662922e-06 -1.077723991290e-06 -1.062948652664e-06 -1.048638558390e-06 -1.034775508025e-06 -1.021342138642e-06 -1.008321875734e-06 -9.956988830335e-07 -9.834580032032e-07 -9.715846632178e-07 -9.600646593305e-07 -9.488835443451e-07 -9.380239013723e-07 -1.479296528419e-06 -1.450608911424e-06 -1.423005351314e-06 -1.396419408159e-06 -1.370801896168e-06 -1.346108340526e-06 -1.322297156562e-06 -1.299329125013e-06 -1.277167157324e-06 -1.255776136294e-06 -1.235122783699e-06 -1.215175542664e-06 -1.195904470630e-06 -1.177281141085e-06 -1.159278552761e-06 -1.141871045510e-06 -1.125034222012e-06 -1.108744874793e-06 -1.092980917995e-06 -1.077721323555e-06 -1.062946061257e-06 -1.048636042318e-06 -1.034773066030e-06 -1.021339768915e-06 -1.008319574953e-06 -9.956966431149e-07 -9.834558002210e-07 -9.715824202610e-07 -9.600621225104e-07 -9.488798721012e-07 -9.380160235274e-07 -1.479304901750e-06 -1.450606628321e-06 -1.423001311009e-06 -1.396415124482e-06 -1.370797686383e-06 -1.346104269530e-06 -1.322293235960e-06 -1.299325355379e-06 -1.277163537159e-06 -1.255772663847e-06 -1.235119457300e-06 -1.215172360698e-06 -1.195901431529e-06 -1.177278243282e-06 -1.159275794690e-06 -1.141868425533e-06 -1.125031738415e-06 -1.108742525783e-06 -1.092978701727e-06 -1.077719238065e-06 -1.062944104422e-06 -1.048634211796e-06 -1.034771359155e-06 -1.021338182239e-06 -1.008318102813e-06 -9.956952728315e-07 -9.834544959279e-07 -9.715810683330e-07 -9.600603490689e-07 -9.488764372989e-07 -9.380063930401e-07 -1.479319004357e-06 -1.450604377392e-06 -1.422996411713e-06 -1.396409895191e-06 -1.370792611980e-06 -1.346099447978e-06 -1.322288683578e-06 -1.299321071903e-06 -1.277159519301e-06 -1.255768907937e-06 -1.235115959741e-06 -1.215169118021e-06 -1.195898440277e-06 -1.177275499942e-06 -1.159273295697e-06 -1.141866167320e-06 -1.125029717343e-06 -1.108740738064e-06 -1.092977143388e-06 -1.077717904981e-06 -1.062942992246e-06 -1.048633315840e-06 -1.034770674163e-06 -1.021337701783e-06 -1.008317817125e-06 -9.956951614772e-07 -9.834545029551e-07 -9.715810185206e-07 -9.600596676423e-07 -9.488732173133e-07 -9.379936326813e-07 -1.479342857260e-06 -1.450601573988e-06 -1.422989370474e-06 -1.396402373371e-06 -1.370785401590e-06 -1.346092709922e-06 -1.322282442200e-06 -1.299315323803e-06 -1.277154257095e-06 -1.255764124563e-06 -1.235111648606e-06 -1.215165272646e-06 -1.195895054157e-06 -1.177272566476e-06 -1.159270808106e-06 -1.141864118611e-06 -1.125028100329e-06 -1.108739545324e-06 -1.092976367167e-06 -1.077717537096e-06 -1.062943024072e-06 -1.048633738244e-06 -1.034771477265e-06 -1.021338874030e-06 -1.008319341803e-06 -9.956970043210e-07 -9.834565707641e-07 -9.715830225731e-07 -9.600606695064e-07 -9.488701070953e-07 -9.379749044064e-07 -1.479384772255e-06 -1.450596457697e-06 -1.422976987834e-06 -1.396389189975e-06 -1.370772825513e-06 -1.346081068524e-06 -1.322271797703e-06 -1.299305667819e-06 -1.277145566466e-06 -1.255756377827e-06 -1.235104829040e-06 -1.215159367060e-06 -1.195890051062e-06 -1.177268454721e-06 -1.159267575976e-06 -1.141861753309e-06 -1.125026587872e-06 -1.108738870747e-06 -1.092976514816e-06 -1.077718491037e-06 -1.062944768668e-06 -1.048636258613e-06 -1.034774758685e-06 -1.021342898561e-06 -1.008324078353e-06 -9.957023822930e-07 -9.834624063008e-07 -9.715887891719e-07 -9.600647238470e-07 -9.488669986922e-07 -9.379440257938e-07 -1.479461445029e-06 -1.450582267628e-06 -1.422950544089e-06 -1.396361363455e-06 -1.370745795676e-06 -1.346055630110e-06 -1.322248379046e-06 -1.299284471664e-06 -1.277126645367e-06 -1.255739703302e-06 -1.235090340663e-06 -1.215146999476e-06 -1.195879745157e-06 -1.177260160231e-06 -1.159261250753e-06 -1.141857362002e-06 -1.125024101103e-06 -1.108738265017e-06 -1.092977772656e-06 -1.077721600016e-06 -1.062949717330e-06 -1.048643027322e-06 -1.034783303785e-06 -1.021353129706e-06 -1.008335831429e-06 -9.957153884885e-07 -9.834762243959e-07 -9.716025014020e-07 -9.600755526792e-07 -9.488647867164e-07 -9.378870186224e-07 -1.479569212993e-06 -1.450506622079e-06 -1.422876523505e-06 -1.396296951923e-06 -1.370683459387e-06 -1.345991905606e-06 -1.322183728019e-06 -1.299220998997e-06 -1.277066641223e-06 -1.255685019580e-06 -1.235042240814e-06 -1.215106217797e-06 -1.195846611816e-06 -1.177234724993e-06 -1.159243379270e-06 -1.141846797741e-06 -1.125020494181e-06 -1.108741172519e-06 -1.092986637009e-06 -1.077735714245e-06 -1.062968190295e-06 -1.048664769859e-06 -1.034807069078e-06 -1.021377656685e-06 -1.008360149897e-06 -9.957393151062e-07 -9.835009013868e-07 -9.716301811754e-07 -9.601057791759e-07 -9.488780218138e-07 -9.377782273723e-07 -1.483830971799e-06 -1.450524754852e-06 -1.421882957684e-06 -1.395177074753e-06 -1.369686232836e-06 -1.345162051416e-06 -1.321503673657e-06 -1.298658725874e-06 -1.276591356905e-06 -1.255271508095e-06 -1.234671289493e-06 -1.214763829106e-06 -1.195522990375e-06 -1.176923380777e-06 -1.158940442095e-06 -1.141550549417e-06 -1.124731096374e-06 -1.108460561748e-06 -1.092718556311e-06 -1.077485845606e-06 -1.062744332305e-06 -1.048476956092e-06 -1.034667414140e-06 -1.021299483288e-06 -1.008355441323e-06 -9.958124045235e-07 -9.836337087909e-07 -9.717481355316e-07 -9.599984119852e-07 -9.480098795187e-07 -9.347478727584e-07 -1.434289791240e-06 -1.439090084120e-06 -1.423146364959e-06 -1.401181914312e-06 -1.377407939343e-06 -1.353363638787e-06 -1.329658795366e-06 -1.306545599182e-06 -1.284125452417e-06 -1.262431294418e-06 -1.241463371295e-06 -1.221205970897e-06 -1.201635725480e-06 -1.182725917796e-06 -1.164448791776e-06 -1.146776837084e-06 -1.129683554267e-06 -1.113143991600e-06 -1.097135248636e-06 -1.081637116246e-06 -1.066633063604e-06 -1.052111905510e-06 -1.038070758551e-06 -1.024520500141e-06 -1.011496309524e-06 -9.990790477030e-07 -9.874409366005e-07 -9.769483553761e-07 -9.684047319783e-07 -9.636497671931e-07 -9.675375322148e-07 
        </DataArray>
        <DataArray type="Float64" Name="DISPLACEMENT" NumberOfComponents="3" format="ascii">
          -2.586348761999e-07 0.000000000000e+00 0.000000000000e+00 -2.560384156901e-07 0.000000000000e+00 0.000000000000e+00 -2.535369686663e-07 0.000000000000e+00 0.000000000000e+00 -2.511265207562e-07 0.000000000000e+00 0.000000000000e+00 -2.488034885610e-07 0.000000000000e+00 0.000000000000e+00 -2.465645497023e-07 0.000000000000e+00 0.000000000000e+00 -2.444065833123e-07 0.000000000000e+00 0.000000000000e+00 -2.423266397843e-07 0.000000000000e+00 0.000000000000e+00 -2.403219209206e-07 0.000000000000e+00 0.000000000000e+00 -2.383897651935e-07 0.000000000000e+00 0.000000000000e+00 -2.365276361226e-07 0.000000000000e+00 0.000000000000e+00 -2.347331127579e-07 0.000000000000e+00 0.000000000000e+00 -2.330038816567e-07 0.000000000000e+00 0.000000000000e+00 -2.313377299513e-07 0.000000000000e+00 0.000000000000e+00 -2.297325392242e-07 0.000000000000e+00 0.000000000000e+00 -2.281862799976e-07 0.000000000000e+00 0.000000000000e+00 -2.266970066967e-07 0.000000000000e+00 0.000000000000e+00 -2.252628529836e-07 0.000000000000e+00 0.000000000000e+00 -2.238820273759e-07 0.000000000000e+00 0.000000000000e+00 -2.225528090771e-07 0.000000000000e+00 0.000000000000e+00 -2.212735439586e-07 0.000000000000e+00 0.000000000000e+00 -2.200426406353e-07 0.000000000000e+00 0.000000000000e+00 -2.188585665702e-07 0.000000000000e+00 0.000000000000e+00 -2.177198441391e-07 0.000000000000e+00 0.000000000000e+00 -2.166250465863e-07 0.000000000000e+00 0.000000000000e+00 -2.155727938268e-07 0.000000000000e+00 0.000000000000e+00 -2.145617481273e-07 0.000000000000e+00 0.000000000000e+00 -2.135906100314e-07 0.000000000000e+00 0.000000000000e+00 -2.126581160352e-07 0.000000000000e+00 0.000000000000e+00 -2.117630433273e-07 0.000000000000e+00 0.000000000000e+00 -2.109042393200e-07 0.000000000000e+00 0.000000000000e+00 -2.573895384486e-07 -2.534878608040e-08 0.000000000000e+00 -2.548054730044e-07 -2.509536863425e-08 0.000000000000e+00 -2.523160467454e-07 -2.485043091490e-08 0.000000000000e+00 -2.499171991237e-07 -2.461423449620e-08 0.000000000000e+00 -2.476053501519e-07 -2.438656700726e-08 0.000000000000e+00 -2.453771904845e-07 -2.416713280702e-08 0.000000000000e+00 -2.432296136367e-07 -2.395563268251e-08 0.000000000000e+00 -2.411596840616e-07 -2.375177911102e-08 0.000000000000e+00 -2.391646170018e-07 -2.355529826568e-08 0.000000000000e+00 -2.372417637359e-07 -2.336592944221e-08 0.000000000000e+00 -2.353885999916e-07 -2.318342411879e-08 0.000000000000e+00 -2.336027164708e-07 -2.300754507003e-08 0.000000000000e+00 -2.318818108664e-07 -2.283806559499e-08 0.000000000000e+00 -2.302236809613e-07 -2.267476884334e-08 0.000000000000e+00 -2.286262185341e-07 -2.251744721508e-08 0.000000000000e+00 -2.270874038738e-07 -2.236590182174e-08 0.000000000000e+00 -2.256053007694e-07 -2.221994199267e-08 0.000000000000e+00 -2.241780518661e-07 -2.207938482227e-08 0.000000000000e+00 -2.228038743046e-07 -2.194405473761e-08 0.000000000000e+00 -2.214810555706e-07 -2.181378309152e-08 0.000000000000e+00 -2.202079494970e-07 -2.168840776554e-08 0.000000000000e+00 -2.189829723572e-07 -2.156777279244e-08 0.000000000000e+00 -2.178045989880e-07 -2.145172798015e-08 0.000000000000e+00 -2.166713588678e-07 -2.134012856297e-08 0.000000000000e+00 -2.155818320822e-07 -2.123283492297e-08 0.000000000000e+00 -2.145346451038e-07 -2.112971260571e-08 0.000000000000e+00 -2.135284663540e-07 -2.103063333466e-08 0.000000000000e+00 -2.125620016743e-07 -2.093547947088e-08 0.000000000000e+00 -2.116339904395e-07 -2.084415998496e-08 0.000000000000e+00 -2.107432050749e-07 -2.075666448714e-08 0.000000000000e+00 -2.098884634092e-07 -2.067324159350e-08 0.000000000000e+00 -2.536655301801e-07 -5.045344418420e-08 0.000000000000e+00 -2.511185279192e-07 -4.994904683396e-08 0.000000000000e+00 -2.486650479853e-07 -4.946152793996e-08 0.000000000000e+00 -2.463008898017e-07 -4.899140764816e-08 0.000000000000e+00 -2.440224831787e-07 -4.853826314608e-08 0.000000000000e+00 -2.418265576581e-07 -4.810150597894e-08 0.000000000000e+00 -2.397100497505e-07 -4.768054059979e-08 0.000000000000e+00 -2.376700659508e-07 -4.727479473717e-08 0.000000000000e+00 -2.357038616922e-07 -4.688372337451e-08 0.000000000000e+00 -2.338088265469e-07 -4.650680761310e-08 0.000000000000e+00 -2.319824727515e-07 -4.614355279803e-08 0.000000000000e+00 -2.302224258552e-07 -4.579348675933e-08 0.000000000000e+00 -2.285264168495e-07 -4.545615827294e-08 0.000000000000e+00 -2.268922753674e-07 -4.513113571934e-08 0.000000000000e+00 -2.253179236785e-07 -4.481800589262e-08 0.000000000000e+00 -2.238013712826e-07 -4.451637292750e-08 0.000000000000e+00 -2.223407099718e-07 -4.422585731840e-08 0.000000000000e+00 -2.209341092536e-07 -4.394609500967e-08 0.000000000000e+00 -2.195798120546e-07 -4.367673654234e-08 0.000000000000e+00 -2.182761306285e-07 -4.341744624002e-08 0.000000000000e+00 -2.170214426160e-07 -4.316790142642e-08 0.000000000000e+00 -2.158141871924e-07 -4.292779166206e-08 0.000000000000e+00 -2.146528612441e-07 -4.269681800354e-08 0.000000000000e+00 -2.135360154934e-07 -4.247469230370e-08 0.000000000000e+00 -2.124622504840e-07 -4.226113666852e-08 0.000000000000e+00 -2.114302122963e-07 -4.205588347744e-08 0.000000000000e+00 -2.104385877484e-07 -4.185867740821e-08 0.000000000000e+00 -2.094860984996e-07 -4.166928430873e-08 0.000000000000e+00 -2.085714924426e-07 -4.148752300918e-08 0.000000000000e+00 -2.076935274433e-07 -4.131337290929e-08 0.000000000000e+00 -2.068509318137e-07 -4.114732922206e-08 0.000000000000e+00 -2.474987509261e-07 -7.507220207525e-08 0.000000000000e+00 -2.450131147854e-07 -7.432167669948e-08 0.000000000000e+00 -2.426191598593e-07 -7.359626739140e-08 0.000000000000e+00 -2.403124469954e-07 -7.289674680444e-08 0.000000000000e+00 -2.380894208511e-07 -7.222248551009e-08 0.000000000000e+00 -2.359468750824e-07 -7.157260786236e-08 0.000000000000e+00 -2.338818173431e-07 -7.094622771756e-08 0.000000000000e+00 -2.318914237421e-07 -7.034249356534e-08 0.000000000000e+00 -2.299730162707e-07 -6.976059445002e-08 0.000000000000e+00 -2.281240479183e-07 -6.919975827206e-08 0.000000000000e+00 -2.263420913786e-07 -6.865924900366e-08 0.000000000000e+00 -2.246248299100e-07 -6.813836406780e-08 0.000000000000e+00 -2.229700496511e-07 -6.763643205624e-08 0.000000000000e+00 -2.213756329849e-07 -6.715281073104e-08 0.000000000000e+00 -2.198395526758e-07 -6.668688525262e-08 0.000000000000e+00 -2.183598665996e-07 -6.623806658001e-08 0.000000000000e+00 -2.169347129244e-07 -6.580579001659e-08 0.000000000000e+00 -2.155623056452e-07 -6.538951385728e-08 0.000000000000e+00 -2.142409303874e-07 -6.498871811656e-08 0.000000000000e+00 -2.129689404199e-07 -6.460290331241e-08 0.000000000000e+00 -2.117447528091e-07 -6.423158930411e-08 0.000000000000e+00 -2.105668446595e-07 -6.387431415989e-08 0.000000000000e+00 -2.094337493717e-07 -6.353063305629e-08 0.000000000000e+00 -2.083440528462e-07 -6.320011723211e-08 0.000000000000e+00 -2.072963895054e-07 -6.288235317737e-08 0.000000000000e+00 -2.062894378973e-07 -6.257694266454e-08 0.000000000000e+00 -2.053219152776e-07 -6.228350576709e-08 0.000000000000e+00 -2.043925694030e-07 -6.200169406422e-08 0.000000000000e+00 -2.035001619491e-07 -6.173123800519e-08 0.000000000000e+00 -2.026434255944e-07 -6.147210713425e-08 0.000000000000e+00 -2.018209368097e-07 -6.122503926522e-08 0.000000000000e+00 -2.389486460101e-07 -9.896797422020e-08 0.000000000000e+00 -2.365480726234e-07 -9.797854115437e-08 0.000000000000e+00 -2.342366464161e-07 -9.702222210822e-08 0.000000000000e+00 -2.320095825512e-07 -9.610003309857e-08 0.000000000000e+00 -2.298633431963e-07 -9.521114374939e-08 0.000000000000e+00 -2.277948102689e-07 -9.435439959164e-08 0.000000000000e+00 -2.258010899423e-07 -9.352863241935e-08 0.000000000000e+00 -2.238794548273e-07 -9.273271970189e-08 0.000000000000e+00 -2.220273192003e-07 -9.196559236291e-08 0.000000000000e+00 -2.202422239866e-07 -9.122623253978e-08 0.000000000000e+00 -2.185218257160e-07 -9.051366991499e-08 0.000000000000e+00 -2.168638876672e-07 -8.982697827078e-08 0.000000000000e+00 -2.152662724470e-07 -8.916527247294e-08 0.000000000000e+00 -2.137269355818e-07 -8.852770583852e-08 0.000000000000e+00 -2.122439198560e-07 -8.791346780273e-08 0.000000000000e+00 -2.108153502212e-07 -8.732178181939e-08 0.000000000000e+00 -2.094394291489e-07 -8.675190343191e-08 0.000000000000e+00 -2.081144323197e-07 -8.620311848770e-08 0.000000000000e+00 -2.068387045711e-07 -8.567474146129e-08 0.000000000000e+00 -2.056106560424e-07 -8.516611386702e-08 0.000000000000e+00 -2.044287584641e-07 -8.467660271879e-08 0.000000000000e+00 -2.032915415271e-07 -8.420559903360e-08 0.000000000000e+00 -2.021975892655e-07 -8.375251637072e-08 0.000000000000e+00 -2.011455363575e-07 -8.331678946615e-08 0.000000000000e+00 -2.001340641935e-07 -8.289787315860e-08 0.000000000000e+00 -1.991618963167e-07 -8.249524243216e-08 0.000000000000e+00 -1.982277921264e-07 -8.210839638608e-08 0.000000000000e+00 -1.973305353577e-07 -8.173687566525e-08 0.000000000000e+00 -1.964689060893e-07 -8.138032496079e-08 0.000000000000e+00 -1.956415996817e-07 -8.103870452582e-08 0.000000000000e+00 -1.948469740520e-07 -8.071298896103e-08 0.000000000000e+00 -2.280976307560e-07 -1.219106473973e-07 0.000000000000e+00 -2.258049726626e-07 -1.206918266952e-07 0.000000000000e+00 -2.235982805541e-07 -1.195138022867e-07 0.000000000000e+00 -2.214723031105e-07 -1.183778211682e-07 0.000000000000e+00 -2.194235190001e-07 -1.172828594249e-07 0.000000000000e+00 -2.174489209683e-07 -1.162274948058e-07 0.000000000000e+00 -2.155457399856e-07 -1.152102883249e-07 0.000000000000e+00 -2.137113711009e-07 -1.142298572750e-07 0.000000000000e+00 -2.119433457170e-07 -1.132848847751e-07 0.000000000000e+00 -2.102393163719e-07 -1.123741170148e-07 0.000000000000e+00 -2.085970460094e-07 -1.114963587408e-07 0.000000000000e+00 -2.070143994809e-07 -1.106504690133e-07 0.000000000000e+00 -2.054893364493e-07 -1.098353574923e-07 0.000000000000e+00 -2.040199052720e-07 -1.090499811994e-07 0.000000000000e+00 -2.026042376034e-07 -1.082933416471e-07 0.000000000000e+00 -2.012405435360e-07 -1.075644822480e-07 0.000000000000e+00 -1.999271071593e-07 -1.068624859415e-07 0.000000000000e+00 -1.986622824441e-07 -1.061864729959e-07 0.000000000000e+00 -1.974444893777e-07 -1.055355989470e-07 0.000000000000e+00 -1.962722102837e-07 -1.049090526335e-07 0.000000000000e+00 -1.951439862763e-07 -1.043060543008e-07 0.000000000000e+00 -1.940584137902e-07 -1.037258537572e-07 0.000000000000e+00 -1.930141411176e-07 -1.031677285830e-07 0.000000000000e+00 -1.920098648417e-07 -1.026309824368e-07 0.000000000000e+00 -1.910443259532e-07 -1.021149437314e-07 0.000000000000e+00 -1.901163050677e-07 -1.016189656805e-07 0.000000000000e+00 -1.892246149561e-07 -1.011424312011e-07 0.000000000000e+00 -1.883680846322e-07 -1.006847744010e-07 0.000000000000e+00 -1.875455162158e-07 -1.002455576840e-07 0.000000000000e+00 -1.867555532463e-07 -9.982473280658e-08 0.000000000000e+00 -1.859962612856e-07 -9.942350377378e-08 0.000000000000e+00 -2.150502945941e-07 -1.436792973901e-07 0.000000000000e+00 -2.128873264739e-07 -1.422428177525e-07 0.000000000000e+00 -2.108065587425e-07 -1.408544283954e-07 0.000000000000e+00 -2.088021317226e-07 -1.395155914202e-07 0.000000000000e+00 -2.068705341754e-07 -1.382250983868e-07 0.000000000000e+00 -2.050088900891e-07 -1.369812728654e-07 0.000000000000e+00 -2.032145800761e-07 -1.357824190076e-07 0.000000000000e+00 -2.014851463363e-07 -1.346269073078e-07 0.000000000000e+00 -1.998182611104e-07 -1.335131858132e-07 0.000000000000e+00 -1.982117111594e-07 -1.324397768739e-07 0.000000000000e+00 -1.966633873906e-07 -1.314052718331e-07 0.000000000000e+00 -1.951712767989e-07 -1.304083260252e-07 0.000000000000e+00 -1.937334557638e-07 -1.294476544117e-07 0.000000000000e+00 -1.923480842817e-07 -1.285220277654e-07 0.000000000000e+00 -1.910134008748e-07 -1.276302692882e-07 0.000000000000e+00 -1.897277180171e-07 -1.267712515548e-07 0.000000000000e+00 -1.884894179445e-07 -1.259438937252e-07 0.000000000000e+00 -1.872969487747e-07 -1.251471589564e-07 0.000000000000e+00 -1.861488208610e-07 -1.243800519698e-07 0.000000000000e+00 -1.850436033281e-07 -1.236416167263e-07 0.000000000000e+00 -1.839799207241e-07 -1.229309341963e-07 0.000000000000e+00 -1.829564497441e-07 -1.222471201897e-07 0.000000000000e+00 -1.819719159468e-07 -1.215893232421e-07 0.000000000000e+00 -1.810250903471e-07 -1.209567226119e-07 0.000000000000e+00 -1.801147855864e-07 -1.203485267182e-07 0.000000000000e+00 -1.792398508536e-07 -1.197639731969e-07 0.000000000000e+00 -1.783991629032e-07 -1.192023346790e-07 0.000000000000e+00 -1.775916045323e-07 -1.186629441467e-07 0.000000000000e+00 -1.768160021174e-07 -1.181452860026e-07 0.000000000000e+00 -1.760709292772e-07 -1.176493046011e-07 0.000000000000e+00 -1.753540744086e-07 -1.171764247819e-07 0.000000000000e+00 -1.999323949339e-07 -1.640643161679e-07 0.000000000000e+00 -1.979195835487e-07 -1.624240020712e-07 0.000000000000e+00 -1.959847068670e-07 -1.608386158085e-07 0.000000000000e+00 -1.941211226004e-07 -1.593098147085e-07 0.000000000000e+00 -1.923253152971e-07 -1.578362162059e-07 0.000000000000e+00 -1.905945577258e-07 -1.564159057156e-07 0.000000000000e+00 -1.889264032210e-07 -1.550469469492e-07 0.000000000000e+00 -1.873185643538e-07 -1.537274794151e-07 0.000000000000e+00 -1.857688765377e-07 -1.524557311272e-07 0.000000000000e+00 -1.842752820658e-07 -1.512300148917e-07 0.000000000000e+00 -1.828358201378e-07 -1.500487222476e-07 0.000000000000e+00 -1.814486192895e-07 -1.489103177812e-07 0.000000000000e+00 -1.801118911529e-07 -1.478133341481e-07 0.000000000000e+00 -1.788239250899e-07 -1.467563677235e-07 0.000000000000e+00 -1.775830834670e-07 -1.457380747334e-07 0.000000000000e+00 -1.763877973949e-07 -1.447571677787e-07 0.000000000000e+00 -1.752365628395e-07 -1.438124126490e-07 0.000000000000e+00 -1.741279370116e-07 -1.429026253695e-07 0.000000000000e+00 -1.730605349822e-07 -1.420266694135e-07 0.000000000000e+00 -1.720330264542e-07 -1.411834530614e-07 0.000000000000e+00 -1.710441326535e-07 -1.403719268479e-07 0.000000000000e+00 -1.700926232727e-07 -1.395910810829e-07 0.000000000000e+00 -1.691773134048e-07 -1.388399434243e-07 0.000000000000e+00 -1.682970603040e-07 -1.381175765981e-07 0.000000000000e+00 -1.674507596087e-07 -1.374230766115e-07 0.000000000000e+00 -1.666373398692e-07 -1.367555728123e-07 0.000000000000e+00 -1.658557516672e-07 -1.361142344800e-07 0.000000000000e+00 -1.651049390486e-07 -1.354982998435e-07 0.000000000000e+00 -1.643837528390e-07 -1.349071803822e-07 0.000000000000e+00 -1.636906732008e-07 -1.343408145255e-07 0.000000000000e+00 -1.630229094552e-07 -1.338008388271e-07 0.000000000000e+00 -1.828896538903e-07 -1.828694299286e-07 0.000000000000e+00 -1.810459292583e-07 -1.810410676793e-07 0.000000000000e+00 -1.792754877123e-07 -1.792739520637e-07 0.000000000000e+00 -1.775706794107e-07 -1.775699106561e-07 0.000000000000e+00 -1.759279586658e-07 -1.759273981973e-07 0.000000000000e+00 -1.743447606930e-07 -1.743442802228e-07 0.000000000000e+00 -1.728188324423e-07 -1.728183988293e-07 0.000000000000e+00 -1.713480783380e-07 -1.713476806414e-07 0.000000000000e+00 -1.699305177126e-07 -1.699301508505e-07 0.000000000000e+00 -1.685642682014e-07 -1.685639290665e-07 0.000000000000e+00 -1.672475361814e-07 -1.672472225964e-07 0.000000000000e+00 -1.659786097623e-07 -1.659783201190e-07 0.000000000000e+00 -1.647558530586e-07 -1.647555861516e-07 0.000000000000e+00 -1.635777012836e-07 -1.635774562036e-07 0.000000000000e+00 -1.624426564182e-07 -1.624424324852e-07 0.000000000000e+00 -1.613492833242e-07 -1.613490800301e-07 0.000000000000e+00 -1.602962061841e-07 -1.602960231483e-07 0.000000000000e+00 -1.592821052023e-07 -1.592819421257e-07 0.000000000000e+00 -1.583057134999e-07 -1.583055701307e-07 0.000000000000e+00 -1.573658141692e-07 -1.573656902626e-07 0.000000000000e+00 -1.564612374239e-07 -1.564611327086e-07 0.000000000000e+00 -1.555908577990e-07 -1.555907719685e-07 0.000000000000e+00 -1.547535913102e-07 -1.547535241575e-07 0.000000000000e+00 -1.539483924150e-07 -1.539483444517e-07 0.000000000000e+00 -1.531742502707e-07 -1.531742250880e-07 0.000000000000e+00 -1.524301827548e-07 -1.524301954152e-07 0.000000000000e+00 -1.517152231759e-07 -1.517153292614e-07 0.000000000000e+00 -1.510283829149e-07 -1.510287773691e-07 0.000000000000e+00 -1.503685345046e-07 -1.503698841367e-07 0.000000000000e+00 -1.497340327725e-07 -1.497385840860e-07 0.000000000000e+00 -1.491214789657e-07 -1.491367169320e-07 0.000000000000e+00 -1.640863752327e-07 -1.999135901051e-07 0.000000000000e+00 -1.624288957603e-07 -1.979147735641e-07 0.000000000000e+00 -1.608398218169e-07 -1.959829491701e-07 0.000000000000e+00 -1.593101886403e-07 -1.941200823982e-07 0.000000000000e+00 -1.578363763247e-07 -1.923244771701e-07 0.000000000000e+00 -1.564159908688e-07 -1.905937994873e-07 0.000000000000e+00 -1.550469910737e-07 -1.889256909063e-07 0.000000000000e+00 -1.537274926727e-07 -1.873178854419e-07 0.000000000000e+00 -1.524557178513e-07 -1.857682247137e-07 0.000000000000e+00 -1.512299776932e-07 -1.842746534234e-07 0.000000000000e+00 -1.500486630328e-07 -1.828352120352e-07 0.000000000000e+00 -1.489102380419e-07 -1.814480298892e-07 0.000000000000e+00 -1.478132350746e-07 -1.801113191690e-07 0.000000000000e+00 -1.467562502619e-07 -1.788233696304e-07 0.000000000000e+00 -1.457379396316e-07 -1.775825439172e-07 0.000000000000e+00 -1.447570156137e-07 -1.763872733311e-07 0.000000000000e+00 -1.438122438539e-07 -1.752360539503e-07 0.000000000000e+00 -1.429024402537e-07 -1.741274430342e-07 0.000000000000e+00 -1.420264681885e-07 -1.730600556370e-07 0.000000000000e+00 -1.411832358520e-07 -1.720325613817e-07 0.000000000000e+00 -1.403716936996e-07 -1.710436813422e-07 0.000000000000e+00 -1.395908319260e-07 -1.700921850134e-07 0.000000000000e+00 -1.388396778902e-07 -1.691768873488e-07 0.000000000000e+00 -1.381172932696e-07 -1.682966459591e-07 0.000000000000e+00 -1.374227703252e-07 -1.674503589072e-07 0.000000000000e+00 -1.367552252413e-07 -1.666369647634e-07 0.000000000000e+00 -1.361137818001e-07 -1.658554506710e-07 0.000000000000e+00 -1.354975229434e-07 -1.651048879449e-07 0.000000000000e+00 -1.349053357851e-07 -1.643845604446e-07 0.000000000000e+00 -1.343354046564e-07 -1.636944016498e-07 0.000000000000e+00 -1.337835491641e-07 -1.630364486137e-07 0.000000000000e+00 -1.437039073390e-07 -2.150327206277e-07 0.000000000000e+00 -1.422478003650e-07 -2.128826769302e-07 0.000000000000e+00 -1.408552343209e-07 -2.108047545733e-07 0.000000000000e+00 -1.395154801460e-07 -2.088010121031e-07 0.000000000000e+00 -1.382247709767e-07 -2.068696138498e-07 0.000000000000e+00 -1.369808842859e-07 -2.050080484880e-07 0.000000000000e+00 -1.357820055547e-07 -2.032137802834e-07 0.000000000000e+00 -1.346264789409e-07 -2.014843729816e-07 0.000000000000e+00 -1.335127464064e-07 -1.998175058204e-07 0.000000000000e+00 -1.324393287198e-07 -1.982109686763e-07 0.000000000000e+00 -1.314048166680e-07 -1.966626542441e-07 0.000000000000e+00 -1.304078652822e-07 -1.951705506781e-07 0.000000000000e+00 -1.294471892836e-07 -1.937327351502e-07 0.000000000000e+00 -1.285215592285e-07 -1.923473682033e-07 0.000000000000e+00 -1.276297981232e-07 -1.910126887269e-07 0.000000000000e+00 -1.267707783699e-07 -1.897270094162e-07 0.000000000000e+00 -1.259434189607e-07 -1.884887126146e-07 0.000000000000e+00 -1.251466828830e-07 -1.872962464485e-07 0.000000000000e+00 -1.243795746892e-07 -1.861481211847e-07 0.000000000000e+00 -1.236411381777e-07 -1.850429057501e-07 0.000000000000e+00 -1.229304541385e-07 -1.839792243788e-07 0.000000000000e+00 -1.222466381274e-07 -1.829557533394e-07 0.000000000000e+00 -1.215888381709e-07 -1.819712177347e-07 0.000000000000e+00 -1.209562321290e-07 -1.810243884714e-07 0.000000000000e+00 -1.203480239002e-07 -1.801140798826e-07 0.000000000000e+00 -1.197634358270e-07 -1.792391497802e-07 0.000000000000e+00 -1.192016884296e-07 -1.783985081429e-07 0.000000000000e+00 -1.186619377792e-07 -1.775911555626e-07 0.000000000000e+00 -1.181430715850e-07 -1.768163224682e-07 0.000000000000e+00 -1.176430363250e-07 -1.760739455842e-07 0.000000000000e+00 -1.171566185926e-07 -1.753662609783e-07 0.000000000000e+00 -1.219389992378e-07 -2.280813053429e-07 0.000000000000e+00 -1.206970280497e-07 -2.258006993214e-07 0.000000000000e+00 -1.195141408121e-07 -2.235967045663e-07 0.000000000000e+00 -1.183771270365e-07 -2.214714027525e-07 0.000000000000e+00 -1.172819510532e-07 -2.194228266731e-07 0.000000000000e+00 -1.162265516387e-07 -2.174483116434e-07 0.000000000000e+00 -1.152093513165e-07 -2.155451702489e-07 0.000000000000e+00 -1.142289367845e-07 -2.137108204426e-07 0.000000000000e+00 -1.132839843491e-07 -2.119428021399e-07 0.000000000000e+00 -1.123732386645e-07 -2.102387721724e-07 0.000000000000e+00 -1.114955040663e-07 -2.085964961153e-07 0.000000000000e+00 -1.106496394095e-07 -2.070138405756e-07 0.000000000000e+00 -1.098345541707e-07 -2.054887664140e-07 0.000000000000e+00 -1.090492051750e-07 -2.040193227941e-07 0.000000000000e+00 -1.082925937250e-07 -2.026036418878e-07 0.000000000000e+00 -1.075637630189e-07 -2.012399340888e-07 0.000000000000e+00 -1.068617957807e-07 -1.999264836111e-07 0.000000000000e+00 -1.061858120538e-07 -1.986616443861e-07 0.000000000000e+00 -1.055349671320e-07 -1.974438361974e-07 0.000000000000e+00 -1.049084495931e-07 -1.962715409924e-07 0.000000000000e+00 -1.043054793887e-07 -1.951432993107e-07 0.000000000000e+00 -1.037253059315e-07 -1.940577067918e-07 0.000000000000e+00 -1.031672060727e-07 -1.930134107715e-07 0.000000000000e+00 -1.026304816357e-07 -1.920091070761e-07 0.000000000000e+00 -1.021144554467e-07 -1.910435375012e-07 0.000000000000e+00 -1.016184624114e-07 -1.901154898203e-07 0.000000000000e+00 -1.011418240463e-07 -1.892238068581e-07 0.000000000000e+00 -1.006837672540e-07 -1.883674272505e-07 0.000000000000e+00 -1.002431551871e-07 -1.875455350967e-07 0.000000000000e+00 -9.981758884447e-08 -1.867580780539e-07 0.000000000000e+00 -9.940042228909e-08 -1.860075124193e-07 0.000000000000e+00 -9.900216521575e-08 -2.389337910750e-07 0.000000000000e+00 -9.798417505213e-08 -2.365445019102e-07 0.000000000000e+00 -9.702197975293e-08 -2.342356955942e-07 0.000000000000e+00 -9.609859482822e-08 -2.320093479471e-07 0.000000000000e+00 -9.520949484502e-08 -2.298633571394e-07 0.000000000000e+00 -9.435275662229e-08 -2.277949309278e-07 0.000000000000e+00 -9.352704654224e-08 -2.258012596825e-07 0.000000000000e+00 -9.273120423282e-08 -2.238796431785e-07 0.000000000000e+00 -9.196415135695e-08 -2.220275073435e-07 0.000000000000e+00 -9.122486777193e-08 -2.202423995079e-07 0.000000000000e+00 -9.051238267590e-08 -2.185219802931e-07 0.000000000000e+00 -8.982576976909e-08 -2.168640157681e-07 0.000000000000e+00 -8.916414385946e-08 -2.152663704635e-07 0.000000000000e+00 -8.852665813922e-08 -2.137270012044e-07 0.000000000000e+00 -8.791250183925e-08 -2.122439516064e-07 0.000000000000e+00 -8.732089814600e-08 -2.108153470845e-07 0.000000000000e+00 -8.675110230986e-08 -2.094393902537e-07 0.000000000000e+00 -8.620239987844e-08 -2.081143566409e-07 0.000000000000e+00 -8.567410501755e-08 -2.068385906412e-07 0.000000000000e+00 -8.516555890593e-08 -2.056105016548e-07 0.000000000000e+00 -8.467612816323e-08 -2.044285603572e-07 0.000000000000e+00 -8.420520322272e-08 -2.032912950714e-07 0.000000000000e+00 -8.375219649226e-08 -2.021972882322e-07 0.000000000000e+00 -8.331653991593e-08 -2.011451730012e-07 0.000000000000e+00 -8.289768067516e-08 -2.001336304339e-07 0.000000000000e+00 -8.249507068582e-08 -1.991613889611e-07 0.000000000000e+00 -8.210813466969e-08 -1.982272330199e-07 0.000000000000e+00 -8.173616362004e-08 -1.973300456821e-07 0.000000000000e+00 -8.137795109427e-08 -1.964689716728e-07 0.000000000000e+00 -8.103055890483e-08 -1.956439908926e-07 0.000000000000e+00 -8.068519266576e-08 -1.948578508466e-07 0.000000000000e+00 -7.511646407721e-08 -2.474857165119e-07 0.000000000000e+00 -7.432805992621e-08 -2.450105704755e-07 0.000000000000e+00 -7.359513298439e-08 -2.426192864334e-07 0.000000000000e+00 -7.289421305232e-08 -2.403134709462e-07 0.000000000000e+00 -7.221976200149e-08 -2.380908376637e-07 0.000000000000e+00 -7.156994419227e-08 -2.359484877027e-07 0.000000000000e+00 -7.094368941669e-08 -2.338835272137e-07 0.000000000000e+00 -7.034010663969e-08 -2.318931748476e-07 0.000000000000e+00 -6.975837199298e-08 -2.299747746348e-07 0.000000000000e+00 -6.919770687694e-08 -2.281257920112e-07 0.000000000000e+00 -6.865737163940e-08 -2.263438070822e-07 0.000000000000e+00 -6.813666182893e-08 -2.246265077126e-07 0.000000000000e+00 -6.763490517927e-08 -2.229716829868e-07 0.000000000000e+00 -6.715145911683e-08 -2.213772171652e-07 0.000000000000e+00 -6.668570869519e-08 -2.198410841351e-07 0.000000000000e+00 -6.623706484346e-08 -2.183613423067e-07 0.000000000000e+00 -6.580496282625e-08 -2.169361299002e-07 0.000000000000e+00 -6.538886083111e-08 -2.155636605548e-07 0.000000000000e+00 -6.498823861386e-08 -2.142422191879e-07 0.000000000000e+00 -6.460259614446e-08 -2.129701580339e-07 0.000000000000e+00 -6.423145220923e-08 -2.117458927837e-07 0.000000000000e+00 -6.387434294180e-08 -2.105678987120e-07 0.000000000000e+00 -6.353082024620e-08 -2.094347066354e-07 0.000000000000e+00 -6.320044988766e-08 -2.083448985910e-07 0.000000000000e+00 -6.288280798277e-08 -2.072971035264e-07 0.000000000000e+00 -6.257747018647e-08 -2.062899950991e-07 0.000000000000e+00 -6.228397128775e-08 -2.053223003092e-07 0.000000000000e+00 -6.200165511264e-08 -2.043928500233e-07 0.000000000000e+00 -6.172914194278e-08 -2.035007740281e-07 0.000000000000e+00 -6.146251777495e-08 -2.026461662709e-07 0.000000000000e+00 -6.118938008875e-08 -2.018322281540e-07 0.000000000000e+00 -5.051881322454e-08 -2.536541263461e-07 0.000000000000e+00 -4.995682069337e-08 -2.511166850488e-07 0.000000000000e+00 -4.945805461357e-08 -2.486661061087e-07 0.000000000000e+00 -4.898636607093e-08 -2.463034215016e-07 0.000000000000e+00 -4.853338519663e-08 -2.440259570521e-07 0.000000000000e+00 -4.809697535690e-08 -2.418306336654e-07 0.000000000000e+00 -4.767632848405e-08 -2.397144851571e-07 0.000000000000e+00 -4.727088652163e-08 -2.376746960516e-07 0.000000000000e+00 -4.688012924409e-08 -2.357085818099e-07 0.000000000000e+00 -4.650354624890e-08 -2.338135737078e-07 0.000000000000e+00 -4.614064076203e-08 -2.319872105792e-07 0.000000000000e+00 -4.579093467458e-08 -2.302271337347e-07 0.000000000000e+00 -4.545397072518e-08 -2.285310828476e-07 0.000000000000e+00 -4.512931256294e-08 -2.268968919426e-07 0.000000000000e+00 -4.481654372540e-08 -2.253224852536e-07 0.000000000000e+00 -4.451526617869e-08 -2.238058729451e-07 0.000000000000e+00 -4.422509875882e-08 -2.223451467330e-07 0.000000000000e+00 -4.394567569280e-08 -2.209384754221e-07 0.000000000000e+00 -4.367664531989e-08 -2.195841003347e-07 0.000000000000e+00 -4.341766913174e-08 -2.182803305677e-07 0.000000000000e+00 -4.316842130640e-08 -2.170255379880e-07 0.000000000000e+00 -4.292858898423e-08 -2.158181518814e-07 0.000000000000e+00 -4.269787347490e-08 -2.146566532936e-07 0.000000000000e+00 -4.247599191043e-08 -2.135395695320e-07 0.000000000000e+00 -4.226267605415e-08 -2.124654705501e-07 0.000000000000e+00 -4.205765522053e-08 -2.114329724238e-07 0.000000000000e+00 -4.186057887222e-08 -2.104407626328e-07 0.000000000000e+00 -4.167073727840e-08 -2.094876876479e-07 0.000000000000e+00 -4.148614390821e-08 -2.085730136009e-07 0.000000000000e+00 -4.130066000056e-08 -2.076971636800e-07 0.000000000000e+00 -4.109521454755e-08 -2.068637692934e-07 0.000000000000e+00 -2.547323346565e-08 -2.573795195124e-07 0.000000000000e+00 -2.511007843179e-08 -2.548064495596e-07 0.000000000000e+00 -2.483795281591e-08 -2.523180987197e-07 0.000000000000e+00 -2.459759717689e-08 -2.499197700032e-07 0.000000000000e+00 -2.437185154650e-08 -2.476090932646e-07 0.000000000000e+00 -2.415546523788e-08 -2.453825129135e-07 0.000000000000e+00 -2.394674107656e-08 -2.432365932471e-07 0.000000000000e+00 -2.374508253114e-08 -2.411681954635e-07 0.000000000000e+00 -2.355023406067e-08 -2.391744399477e-07 0.000000000000e+00 -2.336203720357e-08 -2.372526489353e-07 0.000000000000e+00 -2.318035249405e-08 -2.354003032477e-07 0.000000000000e+00 -2.300503678500e-08 -2.336150134732e-07 0.000000000000e+00 -2.283593921553e-08 -2.318945011252e-07 0.000000000000e+00 -2.267290311744e-08 -2.302365860279e-07 0.000000000000e+00 -2.251576943617e-08 -2.286391774726e-07 0.000000000000e+00 -2.236438020399e-08 -2.271002676579e-07 0.000000000000e+00 -2.221858166073e-08 -2.256179265621e-07 0.000000000000e+00 -2.207822697131e-08 -2.241902977879e-07 0.000000000000e+00 -2.194317855214e-08 -2.228155951930e-07 0.000000000000e+00 -2.181330992732e-08 -2.214921003190e-07 0.000000000000e+00 -2.168850672942e-08 -2.202181608514e-07 0.000000000000e+00 -2.156866578763e-08 -2.189921905981e-07 0.000000000000e+00 -2.145368974146e-08 -2.178126718893e-07 0.000000000000e+00 -2.134347113225e-08 -2.166781619697e-07 0.000000000000e+00 -2.123785151735e-08 -2.155873061055e-07 0.000000000000e+00 -2.113652028820e-08 -2.145388620765e-07 0.000000000000e+00 -2.103876444051e-08 -2.135317438729e-07 0.000000000000e+00 -2.094283998834e-08 -2.125650969472e-07 0.000000000000e+00 -2.084435739620e-08 -2.116384217036e-07 0.000000000000e+00 -2.073203629980e-08 -2.107517572379e-07 0.000000000000e+00 -2.057630099618e-08 -2.099058890733e-07 0.000000000000e+00 0.000000000000e+00 -2.587805908094e-07 0.000000000000e+00 0.000000000000e+00 -2.562677600405e-07 0.000000000000e+00 0.000000000000e+00 -2.537590406457e-07 0.000000000000e+00 0.000000000000e+00 -2.513196133920e-07 0.000000000000e+00 0.000000000000e+00 -2.489658485221e-07 0.000000000000e+00 0.000000000000e+00 -2.466998950375e-07 0.000000000000e+00 0.000000000000e+00 -2.445196632157e-07 0.000000000000e+00 0.000000000000e+00 -2.424218896563e-07 0.000000000000e+00 0.000000000000e+00 -2.404031211484e-07 0.000000000000e+00 0.000000000000e+00 -2.384600302687e-07 0.000000000000e+00 0.000000000000e+00 -2.365895051313e-07 0.000000000000e+00 0.000000000000e+00 -2.347886613299e-07 0.000000000000e+00 0.000000000000e+00 -2.330548283617e-07 0.000000000000e+00 0.000000000000e+00 -2.313855295634e-07 0.000000000000e+00 0.000000000000e+00 -2.297784624196e-07 0.000000000000e+00 0.000000000000e+00 -2.282314815050e-07 0.000000000000e+00 0.000000000000e+00 -2.267425845313e-07 0.000000000000e+00 0.000000000000e+00 -2.253099012452e-07 0.000000000000e+00 0.000000000000e+00 -2.239316845981e-07 0.000000000000e+00 0.000000000000e+00 -2.226063033892e-07 0.000000000000e+00 0.000000000000e+00 -2.213322352199e-07 0.000000000000e+00 0.000000000000e+00 -2.201080577964e-07 0.000000000000e+00 0.000000000000e+00 -2.189324349009e-07 0.000000000000e+00 0.000000000000e+00 -2.178040897010e-07 0.000000000000e+00 0.000000000000e+00 -2.167217498186e-07 0.000000000000e+00 0.000000000000e+00 -2.156840293401e-07 0.000000000000e+00 0.000000000000e+00 -2.146891664503e-07 0.000000000000e+00 0.000000000000e+00 -2.137344188978e-07 0.000000000000e+00 0.000000000000e+00 -2.128146182020e-07 0.000000000000e+00 0.000000000000e+00 -2.119185832866e-07 0.000000000000e+00 0.000000000000e+00 -2.110199241053e-07 0.000000000000e+00 
        </DataArray>
        <DataArray type="Float64" Name="NORMSTRESS_1" NumberOfComponents="3" format="ascii">
          9.999996303204e-01 8.598599355576e-04 0.000000000000e+00 9.999998234434e-01 5.942332577605e-04 0.000000000000e+00 9.999999022828e-01 4.420796244026e-04 0.000000000000e+00 9.999999420936e-01 3.403128369524e-04 0.000000000000e+00 9.999999636726e-01 2.695456528411e-04 0.000000000000e+00 9.999999758911e-01 2.195853093561e-04 0.000000000000e+00 9.999999830632e-01 1.840475508993e-04 0.000000000000e+00 9.999999874189e-01 1.586257028236e-04 0.000000000000e+00 9.999999901539e-01 1.403286938332e-04 0.000000000000e+00 9.999999919292e-01 1.270499102937e-04 0.000000000000e+00 9.999999931216e-01 1.172890756734e-04 0.000000000000e+00 9.999999939541e-01 1.099629357327e-04 0.000000000000e+00 9.999999945636e-01 1.042724449009e-04 0.000000000000e+00 9.999999950391e-01 9.960774529326e-05 0.000000000000e+00 9.999999954420e-01 9.547729045793e-05 0.000000000000e+00 9.999999958181e-01 9.145331045480e-05 0.000000000000e+00 9.999999962045e-01 8.712605886289e-05 0.000000000000e+00 9.999999966329e-01 8.206268376172e-05 0.000000000000e+00 9.999999971298e-01 7.576513057768e-05 0.000000000000e+00 9.999999977135e-01 6.762437540116e-05 0.000000000000e+00 9.999999983831e-01 5.686603214094e-05 0.000000000000e+00 9.999999990975e-01 4.248412888472e-05 0.000000000000e+00 9.999999997319e-01 2.315644957386e-05 0.000000000000e+00 9.999999999959e-01 -2.862366556466e-06 0.000000000000e+00 9.999999992828e-01 -3.787420960523e-05 0.000000000000e+00 9.999999963968e-01 -8.489058844259e-05 0.000000000000e+00 9.999999890829e-01 -1.477643307340e-04 0.000000000000e+00 9.999999732901e-01 -2.311272969517e-04 0.000000000000e+00 9.999999423624e-01 -3.395219812767e-04 0.000000000000e+00 9.999998878340e-01 -4.736369517458e-04 0.000000000000e+00 9.999998130755e-01 -6.114318161227e-04 0.000000000000e+00 9.951911649914e-01 9.795174895403e-02 0.000000000000e+00 9.951859282822e-01 9.800493941171e-02 0.000000000000e+00 9.951850098168e-01 9.801426547114e-02 0.000000000000e+00 9.951847981783e-01 9.801641431301e-02 0.000000000000e+00 9.951847441121e-01 9.801696325882e-02 0.000000000000e+00 9.951847262919e-01 9.801714419097e-02 0.000000000000e+00 9.951847174426e-01 9.801723403909e-02 0.000000000000e+00 9.951847112770e-01 9.801729663965e-02 0.000000000000e+00 9.951847062892e-01 9.801734728171e-02 0.000000000000e+00 9.951847020904e-01 9.801738991249e-02 0.000000000000e+00 9.951846985435e-01 9.801742592460e-02 0.000000000000e+00 9.951846955955e-01 9.801745585617e-02 0.000000000000e+00 9.951846932144e-01 9.801748003180e-02 0.000000000000e+00 9.951846914058e-01 9.801749839501e-02 0.000000000000e+00 9.951846901307e-01 9.801751134134e-02 0.000000000000e+00 9.951846893792e-01 9.801751897101e-02 0.000000000000e+00 9.951846891308e-01 9.801752149293e-02 0.000000000000e+00 9.951846894183e-01 9.801751857358e-02 0.000000000000e+00 9.951846902139e-01 9.801751049584e-02 0.000000000000e+00 9.951846915201e-01 9.801749723458e-02 0.000000000000e+00 9.951846933039e-01 9.801747912295e-02 0.000000000000e+00 9.951846956318e-01 9.801745548715e-02 0.000000000000e+00 9.951846986240e-01 9.801742510734e-02 0.000000000000e+00 9.951847028329e-01 9.801738237359e-02 0.000000000000e+00 9.951847102190e-01 9.801730738114e-02 0.000000000000e+00 9.951847279771e-01 9.801712708094e-02 0.000000000000e+00 9.951847812373e-01 9.801658631957e-02 0.000000000000e+00 9.951849570986e-01 9.801480074238e-02 0.000000000000e+00 9.951855537640e-01 9.800874236268e-02 0.000000000000e+00 9.951875824802e-01 9.798814049273e-02 0.000000000000e+00 9.951951324376e-01 9.791143126591e-02 0.000000000000e+00 9.808111579294e-01 1.949601817838e-01 0.000000000000e+00 9.807901115830e-01 1.950660324635e-01 0.000000000000e+00 9.807864220720e-01 1.950845823718e-01 0.000000000000e+00 9.807855731498e-01 1.950888502741e-01 0.000000000000e+00 9.807853573372e-01 1.950899352424e-01 0.000000000000e+00 9.807852870264e-01 1.950902887191e-01 0.000000000000e+00 9.807852526624e-01 1.950904614788e-01 0.000000000000e+00 9.807852290289e-01 1.950905802919e-01 0.000000000000e+00 9.807852100392e-01 1.950906757595e-01 0.000000000000e+00 9.807851940658e-01 1.950907560631e-01 0.000000000000e+00 9.807851805962e-01 1.950908237792e-01 0.000000000000e+00 9.807851694030e-01 1.950908800512e-01 0.000000000000e+00 9.807851603629e-01 1.950909254987e-01 0.000000000000e+00 9.807851533889e-01 1.950909605595e-01 0.000000000000e+00 9.807851484670e-01 1.950909853033e-01 0.000000000000e+00 9.807851455576e-01 1.950909999297e-01 0.000000000000e+00 9.807851446136e-01 1.950910046756e-01 0.000000000000e+00 9.807851455664e-01 1.950909998854e-01 0.000000000000e+00 9.807851484328e-01 1.950909854751e-01 0.000000000000e+00 9.807851532108e-01 1.950909614544e-01 0.000000000000e+00 9.807851599101e-01 1.950909277752e-01 0.000000000000e+00 9.807851685742e-01 1.950908842176e-01 0.000000000000e+00 9.807851797139e-01 1.950908282149e-01 0.000000000000e+00 9.807851955169e-01 1.950907487678e-01 0.000000000000e+00 9.807852241089e-01 1.950906050267e-01 0.000000000000e+00 9.807852942661e-01 1.950902523226e-01 0.000000000000e+00 9.807855069933e-01 1.950891828676e-01 0.000000000000e+00 9.807862122349e-01 1.950856373233e-01 0.000000000000e+00 9.807886086574e-01 1.950735890063e-01 0.000000000000e+00 9.807967606706e-01 1.950325979369e-01 0.000000000000e+00 9.808271065449e-01 1.948799298718e-01 0.000000000000e+00 9.569990451837e-01 2.900910676278e-01 0.000000000000e+00 9.569513044511e-01 2.902485157745e-01 0.000000000000e+00 9.569429427551e-01 2.902760829127e-01 0.000000000000e+00 9.569410233493e-01 2.902824104749e-01 0.000000000000e+00 9.569405393485e-01 2.902840060208e-01 0.000000000000e+00 9.569403849925e-01 2.902845148649e-01 0.000000000000e+00 9.569403117527e-01 2.902847563042e-01 0.000000000000e+00 9.569402623408e-01 2.902849191933e-01 0.000000000000e+00 9.569402230292e-01 2.902850487862e-01 0.000000000000e+00 9.569401901818e-01 2.902851570694e-01 0.000000000000e+00 9.569401625503e-01 2.902852481580e-01 0.000000000000e+00 9.569401395571e-01 2.902853239564e-01 0.000000000000e+00 9.569401210290e-01 2.902853850352e-01 0.000000000000e+00 9.569401068433e-01 2.902854317989e-01 0.000000000000e+00 9.569400967921e-01 2.902854649332e-01 0.000000000000e+00 9.569400906466e-01 2.902854851921e-01 0.000000000000e+00 9.569400884623e-01 2.902854923929e-01 0.000000000000e+00 9.569400903059e-01 2.902854863153e-01 0.000000000000e+00 9.569400961204e-01 2.902854671475e-01 0.000000000000e+00 9.569401056234e-01 2.902854358204e-01 0.000000000000e+00 9.569401187672e-01 2.902853924914e-01 0.000000000000e+00 9.569401358649e-01 2.902853361277e-01 0.000000000000e+00 9.569401582998e-01 2.902852621701e-01 0.000000000000e+00 9.569401908586e-01 2.902851548384e-01 0.000000000000e+00 9.569402516794e-01 2.902849543394e-01 0.000000000000e+00 9.569404060437e-01 2.902844454683e-01 0.000000000000e+00 9.569408833231e-01 2.902828720831e-01 0.000000000000e+00 9.569424771965e-01 2.902776176990e-01 0.000000000000e+00 9.569479064231e-01 2.902597188597e-01 0.000000000000e+00 9.569663917628e-01 2.901987681512e-01 0.000000000000e+00 9.570352365136e-01 2.899716470128e-01 0.000000000000e+00 9.239851866022e-01 3.824282611677e-01 0.000000000000e+00 9.238992892799e-01 3.826357318235e-01 0.000000000000e+00 9.238842616205e-01 3.826720150859e-01 0.000000000000e+00 9.238808223202e-01 3.826803184761e-01 0.000000000000e+00 9.238799638831e-01 3.826823909397e-01 0.000000000000e+00 9.238796972301e-01 3.826830346984e-01 0.000000000000e+00 9.238795754699e-01 3.826833286538e-01 0.000000000000e+00 9.238794958207e-01 3.826835209441e-01 0.000000000000e+00 9.238794334601e-01 3.826836714956e-01 0.000000000000e+00 9.238793817127e-01 3.826837964248e-01 0.000000000000e+00 9.238793383997e-01 3.826839009915e-01 0.000000000000e+00 9.238793025986e-01 3.826839874230e-01 0.000000000000e+00 9.238792736343e-01 3.826840573488e-01 0.000000000000e+00 9.238792512237e-01 3.826841114527e-01 0.000000000000e+00 9.238792352672e-01 3.826841499749e-01 0.000000000000e+00 9.238792257487e-01 3.826841729547e-01 0.000000000000e+00 9.238792223080e-01 3.826841812612e-01 0.000000000000e+00 9.238792246541e-01 3.826841755973e-01 0.000000000000e+00 9.238792326558e-01 3.826841562795e-01 0.000000000000e+00 9.238792465332e-01 3.826841227765e-01 0.000000000000e+00 9.238792662307e-01 3.826840752227e-01 0.000000000000e+00 9.238792919721e-01 3.826840130776e-01 0.000000000000e+00 9.238793257454e-01 3.826839315417e-01 0.000000000000e+00 9.238793765630e-01 3.826838088575e-01 0.000000000000e+00 9.238794772961e-01 3.826835656663e-01 0.000000000000e+00 9.238797453666e-01 3.826829184866e-01 0.000000000000e+00 9.238805928725e-01 3.826808724167e-01 0.000000000000e+00 9.238834476051e-01 3.826739803559e-01 0.000000000000e+00 9.238932008900e-01 3.826504323129e-01 0.000000000000e+00 9.239264459604e-01 3.825701536386e-01 0.000000000000e+00 9.240503387719e-01 3.822708090026e-01 0.000000000000e+00 8.820891403190e-01 4.710825283656e-01 0.000000000000e+00 8.819526859247e-01 4.713379464781e-01 0.000000000000e+00 8.819288453215e-01 4.713825535485e-01 0.000000000000e+00 8.819234057364e-01 4.713927305488e-01 0.000000000000e+00 8.819220622083e-01 4.713952441320e-01 0.000000000000e+00 8.819216568646e-01 4.713960024791e-01 0.000000000000e+00 8.819214803479e-01 4.713963327191e-01 0.000000000000e+00 8.819213692366e-01 4.713965405939e-01 0.000000000000e+00 8.819212840682e-01 4.713966999328e-01 0.000000000000e+00 8.819212142123e-01 4.713968306239e-01 0.000000000000e+00 8.819211561462e-01 4.713969392580e-01 0.000000000000e+00 8.819211081854e-01 4.713970289861e-01 0.000000000000e+00 8.819210695265e-01 4.713971013118e-01 0.000000000000e+00 8.819210396660e-01 4.713971571769e-01 0.000000000000e+00 8.819210183680e-01 4.713971970225e-01 0.000000000000e+00 8.819210052435e-01 4.713972215768e-01 0.000000000000e+00 8.819209999380e-01 4.713972315026e-01 0.000000000000e+00 8.819210021019e-01 4.713972274544e-01 0.000000000000e+00 8.819210117581e-01 4.713972093889e-01 0.000000000000e+00 8.819210287404e-01 4.713971776172e-01 0.000000000000e+00 8.819210528435e-01 4.713971325236e-01 0.000000000000e+00 8.819210845861e-01 4.713970731373e-01 0.000000000000e+00 8.819211276493e-01 4.713969925718e-01 0.000000000000e+00 8.819211961480e-01 4.713968644199e-01 0.000000000000e+00 8.819213420299e-01 4.713965914940e-01 0.000000000000e+00 8.819217516215e-01 4.713958252009e-01 0.000000000000e+00 8.819230794104e-01 4.713933410680e-01 0.000000000000e+00 8.819275924393e-01 4.713848976095e-01 0.000000000000e+00 8.819430594420e-01 4.713559588062e-01 0.000000000000e+00 8.819958450555e-01 4.712571795791e-01 0.000000000000e+00 8.821927130783e-01 4.708885398813e-01 0.000000000000e+00 8.317167989093e-01 5.552001138438e-01 0.000000000000e+00 8.315159203843e-01 5.555009218242e-01 0.000000000000e+00 8.314808760879e-01 5.555533752036e-01 0.000000000000e+00 8.314729022742e-01 5.555653091975e-01 0.000000000000e+00 8.314709511715e-01 5.555682292553e-01 0.000000000000e+00 8.314703787547e-01 5.555690859412e-01 0.000000000000e+00 8.314701415954e-01 5.555694408760e-01 0.000000000000e+00 8.314699988194e-01 5.555696545558e-01 0.000000000000e+00 8.314698920944e-01 5.555698142813e-01 0.000000000000e+00 8.314698059965e-01 5.555699431360e-01 0.000000000000e+00 8.314697351900e-01 5.555700491055e-01 0.000000000000e+00 8.314696771629e-01 5.555701359492e-01 0.000000000000e+00 8.314696304779e-01 5.555702058183e-01 0.000000000000e+00 8.314695945292e-01 5.555702596193e-01 0.000000000000e+00 8.314695685765e-01 5.555702984603e-01 0.000000000000e+00 8.314695519864e-01 5.555703232891e-01 0.000000000000e+00 8.314695443038e-01 5.555703347870e-01 0.000000000000e+00 8.314695456161e-01 5.555703328229e-01 0.000000000000e+00 8.314695555679e-01 5.555703179289e-01 0.000000000000e+00 8.314695735598e-01 5.555702910023e-01 0.000000000000e+00 8.314695993022e-01 5.555702524760e-01 0.000000000000e+00 8.314696341172e-01 5.555702003717e-01 0.000000000000e+00 8.314696833377e-01 5.555701267079e-01 0.000000000000e+00 8.314697676070e-01 5.555700005900e-01 0.000000000000e+00 8.314699634716e-01 5.555697074576e-01 0.000000000000e+00 8.314705452760e-01 5.555688367236e-01 0.000000000000e+00 8.314724755536e-01 5.555659478377e-01 0.000000000000e+00 8.314790888937e-01 5.555560500368e-01 0.000000000000e+00 8.315018183105e-01 5.555220302979e-01 0.000000000000e+00 8.315794835736e-01 5.554057638334e-01 0.000000000000e+00 8.318694112258e-01 5.549714250904e-01 0.000000000000e+00 7.733568438796e-01 6.339709709636e-01 0.000000000000e+00 7.730753963565e-01 6.343141426362e-01 0.000000000000e+00 7.730263753249e-01 6.343738827002e-01 0.000000000000e+00 7.730152452784e-01 6.343874451525e-01 0.000000000000e+00 7.730125410055e-01 6.343907403551e-01 0.000000000000e+00 7.730117642194e-01 6.343916868768e-01 0.000000000000e+00 7.730114555099e-01 6.343920630419e-01 0.000000000000e+00 7.730112780424e-01 6.343922792872e-01 0.000000000000e+00 7.730111499388e-01 6.343924353823e-01 0.000000000000e+00 7.730110484641e-01 6.343925590299e-01 0.000000000000e+00 7.730109657660e-01 6.343926597980e-01 0.000000000000e+00 7.730108983648e-01 6.343927419267e-01 0.000000000000e+00 7.730108447383e-01 6.343928072709e-01 0.000000000000e+00 7.730108033592e-01 6.343928576915e-01 0.000000000000e+00 7.730107731168e-01 6.343928945419e-01 0.000000000000e+00 7.730107531702e-01 6.343929188470e-01 0.000000000000e+00 7.730107432994e-01 6.343929308746e-01 0.000000000000e+00 7.730107428288e-01 6.343929314480e-01 0.000000000000e+00 7.730107513725e-01 6.343929210375e-01 0.000000000000e+00 7.730107685286e-01 6.343929001328e-01 0.000000000000e+00 7.730107945796e-01 6.343928683894e-01 0.000000000000e+00 7.730108306677e-01 6.343928244159e-01 0.000000000000e+00 7.730108840805e-01 6.343927593322e-01 0.000000000000e+00 7.730109841956e-01 6.343926373414e-01 0.000000000000e+00 7.730112394095e-01 6.343923263617e-01 0.000000000000e+00 7.730120335247e-01 6.343913587258e-01 0.000000000000e+00 7.730147126858e-01 6.343880941279e-01 0.000000000000e+00 7.730239435136e-01 6.343768460109e-01 0.000000000000e+00 7.730557365283e-01 6.343381024506e-01 0.000000000000e+00 7.731644898069e-01 6.342055437330e-01 0.000000000000e+00 7.735709213267e-01 6.337097361393e-01 0.000000000000e+00 7.075766706707e-01 7.066365792418e-01 0.000000000000e+00 7.071949307211e-01 7.070186206617e-01 0.000000000000e+00 7.071285609857e-01 7.070850007165e-01 0.000000000000e+00 7.071135085688e-01 7.071000537403e-01 0.000000000000e+00 7.071098621098e-01 7.071037002499e-01 0.000000000000e+00 7.071088258827e-01 7.071047364844e-01 0.000000000000e+00 7.071084246500e-01 7.071051377193e-01 0.000000000000e+00 7.071082017864e-01 7.071053605839e-01 0.000000000000e+00 7.071080452176e-01 7.071055171532e-01 0.000000000000e+00 7.071079237996e-01 7.071056385716e-01 0.000000000000e+00 7.071078265131e-01 7.071057358584e-01 0.000000000000e+00 7.071077484136e-01 7.071058139582e-01 0.000000000000e+00 7.071076861939e-01 7.071058761781e-01 0.000000000000e+00 7.071076381324e-01 7.071059242397e-01 0.000000000000e+00 7.071076027625e-01 7.071059596096e-01 0.000000000000e+00 7.071075792334e-01 7.071059831388e-01 0.000000000000e+00 7.071075662772e-01 7.071059960950e-01 0.000000000000e+00 7.071075637277e-01 7.071059986446e-01 0.000000000000e+00 7.071075709828e-01 7.071059913894e-01 0.000000000000e+00 7.071075879157e-01 7.071059744564e-01 0.000000000000e+00 7.071076141863e-01 7.071059481858e-01 0.000000000000e+00 7.071076525218e-01 7.071059098502e-01 0.000000000000e+00 7.071077136850e-01 7.071058486869e-01 0.000000000000e+00 7.071078384203e-01 7.071057239513e-01 0.000000000000e+00 7.071081725400e-01 7.071053898304e-01 0.000000000000e+00 7.071092363323e-01 7.071043260323e-01 0.000000000000e+00 7.071128528214e-01 7.071007094995e-01 0.000000000000e+00 7.071253426324e-01 7.070882192534e-01 0.000000000000e+00 7.071684010377e-01 7.070451559652e-01 0.000000000000e+00 7.073158169507e-01 7.068976836087e-01 0.000000000000e+00 7.078675036651e-01 7.063452394226e-01 0.000000000000e+00 6.350180698309e-01 7.724972821883e-01 0.000000000000e+00 6.345105427890e-01 7.729142068106e-01 0.000000000000e+00 6.344224948460e-01 7.729864798516e-01 0.000000000000e+00 6.344025196898e-01 7.730028738700e-01 0.000000000000e+00 6.343976703299e-01 7.730068537083e-01 0.000000000000e+00 6.343962868943e-01 7.730079890757e-01 0.000000000000e+00 6.343957513556e-01 7.730084285841e-01 0.000000000000e+00 6.343954570843e-01 7.730086700877e-01 0.000000000000e+00 6.343952539419e-01 7.730088368033e-01 0.000000000000e+00 6.343950991772e-01 7.730089638160e-01 0.000000000000e+00 6.343949774446e-01 7.730090637198e-01 0.000000000000e+00 6.343948807708e-01 7.730091430583e-01 0.000000000000e+00 6.343948043598e-01 7.730092057675e-01 0.000000000000e+00 6.343947451627e-01 7.730092543495e-01 0.000000000000e+00 6.343947016980e-01 7.730092900202e-01 0.000000000000e+00 6.343946724787e-01 7.730093139999e-01 0.000000000000e+00 6.343946562602e-01 7.730093273102e-01 0.000000000000e+00 6.343946518628e-01 7.730093309190e-01 0.000000000000e+00 6.343946594285e-01 7.730093247100e-01 0.000000000000e+00 6.343946790384e-01 7.730093086165e-01 0.000000000000e+00 6.343947117792e-01 7.730092817467e-01 0.000000000000e+00 6.343947613830e-01 7.730092410378e-01 0.000000000000e+00 6.343948434704e-01 7.730091736701e-01 0.000000000000e+00 6.343950127178e-01 7.730090347718e-01 0.000000000000e+00 6.343954649671e-01 7.730086636184e-01 0.000000000000e+00 6.343968904623e-01 7.730074937358e-01 0.000000000000e+00 6.344017072665e-01 7.730035406241e-01 0.000000000000e+00 6.344182990812e-01 7.729899234731e-01 0.000000000000e+00 6.344754706196e-01 7.729429973692e-01 0.000000000000e+00 6.346713195810e-01 7.727821918894e-01 0.000000000000e+00 6.354056399670e-01 7.721785238520e-01 0.000000000000e+00 5.563932430655e-01 8.309191050102e-01 0.000000000000e+00 5.557247627078e-01 8.313663380925e-01 0.000000000000e+00 5.556091327755e-01 8.314436190004e-01 0.000000000000e+00 5.555828333462e-01 8.314611928954e-01 0.000000000000e+00 5.555763943055e-01 8.314654954299e-01 0.000000000000e+00 5.555745215553e-01 8.314667467786e-01 0.000000000000e+00 5.555737755783e-01 8.314672452296e-01 0.000000000000e+00 5.555733579008e-01 8.314675243152e-01 0.000000000000e+00 5.555730700083e-01 8.314677166803e-01 0.000000000000e+00 5.555728533860e-01 8.314678614237e-01 0.000000000000e+00 5.555726843943e-01 8.314679743411e-01 0.000000000000e+00 5.555725511495e-01 8.314680633730e-01 0.000000000000e+00 5.555724471313e-01 8.314681328761e-01 0.000000000000e+00 5.555723678865e-01 8.314681858262e-01 0.000000000000e+00 5.555723092907e-01 8.314682249788e-01 0.000000000000e+00 5.555722688597e-01 8.314682519941e-01 0.000000000000e+00 5.555722459155e-01 8.314682673250e-01 0.000000000000e+00 5.555722408929e-01 8.314682706810e-01 0.000000000000e+00 5.555722536849e-01 8.314682621336e-01 0.000000000000e+00 5.555722851313e-01 8.314682411217e-01 0.000000000000e+00 5.555723382049e-01 8.314682056589e-01 0.000000000000e+00 5.555724207814e-01 8.314681504827e-01 0.000000000000e+00 5.555725544066e-01 8.314680611966e-01 0.000000000000e+00 5.555728133392e-01 8.314678881824e-01 0.000000000000e+00 5.555734568837e-01 8.314674581764e-01 0.000000000000e+00 5.555753952243e-01 8.314661630044e-01 0.000000000000e+00 5.555818056420e-01 8.314618796070e-01 0.000000000000e+00 5.556036977395e-01 8.314472509174e-01 0.000000000000e+00 5.556789148807e-01 8.313969831296e-01 0.000000000000e+00 5.559366142733e-01 8.312246873802e-01 0.000000000000e+00 5.569055967404e-01 8.305757980577e-01 0.000000000000e+00 4.724824658882e-01 8.813400702500e-01 0.000000000000e+00 4.716007844871e-01 8.818121682485e-01 0.000000000000e+00 4.714490149820e-01 8.818933190996e-01 0.000000000000e+00 4.714142321631e-01 8.819119126727e-01 0.000000000000e+00 4.714055456112e-01 8.819165558980e-01 0.000000000000e+00 4.714029343758e-01 8.819179516610e-01 0.000000000000e+00 4.714018481967e-01 8.819185322448e-01 0.000000000000e+00 4.714012142903e-01 8.819188710792e-01 0.000000000000e+00 4.714007647746e-01 8.819191113531e-01 0.000000000000e+00 4.714004225374e-01 8.819192942847e-01 0.000000000000e+00 4.714001569021e-01 8.819194362711e-01 0.000000000000e+00 4.713999497809e-01 8.819195469806e-01 0.000000000000e+00 4.713997887039e-01 8.819196330788e-01 0.000000000000e+00 4.713996651984e-01 8.819196990945e-01 0.000000000000e+00 4.713995738756e-01 8.819197479079e-01 0.000000000000e+00 4.713995114930e-01 8.819197812523e-01 0.000000000000e+00 4.713994771390e-01 8.819197996151e-01 0.000000000000e+00 4.713994720938e-01 8.819198023118e-01 0.000000000000e+00 4.713994994204e-01 8.819197877053e-01 0.000000000000e+00 4.713995630128e-01 8.819197537142e-01 0.000000000000e+00 4.713996687864e-01 8.819196971766e-01 0.000000000000e+00 4.713998281720e-01 8.819196119825e-01 0.000000000000e+00 4.714000721467e-01 8.819194815742e-01 0.000000000000e+00 4.714005020923e-01 8.819192517612e-01 0.000000000000e+00 4.714014708956e-01 8.819187339191e-01 0.000000000000e+00 4.714042000814e-01 8.819172751147e-01 0.000000000000e+00 4.714128917479e-01 8.819126291725e-01 0.000000000000e+00 4.714419811131e-01 8.818970792809e-01 0.000000000000e+00 4.715410753934e-01 8.818440985894e-01 0.000000000000e+00 4.718803404395e-01 8.816626023070e-01 0.000000000000e+00 4.731625222755e-01 8.809751571491e-01 0.000000000000e+00 3.841367033853e-01 9.232762279580e-01 0.000000000000e+00 3.829571055541e-01 9.237661258704e-01 0.000000000000e+00 3.827564129635e-01 9.238492995805e-01 0.000000000000e+00 3.827094540469e-01 9.238687535484e-01 0.000000000000e+00 3.826969436662e-01 9.238739358314e-01 0.000000000000e+00 3.826928789599e-01 9.238756195470e-01 0.000000000000e+00 3.826911509422e-01 9.238763353342e-01 0.000000000000e+00 3.826901621127e-01 9.238767449298e-01 0.000000000000e+00 3.826894525850e-01 9.238770388316e-01 0.000000000000e+00 3.826888852370e-01 9.238772738389e-01 0.000000000000e+00 3.826884198993e-01 9.238774665912e-01 0.000000000000e+00 3.826880425903e-01 9.238776228800e-01 0.000000000000e+00 3.826877440288e-01 9.238777465499e-01 0.000000000000e+00 3.826875167476e-01 9.238778406941e-01 0.000000000000e+00 3.826873558896e-01 9.238779073244e-01 0.000000000000e+00 3.826872579287e-01 9.238779479017e-01 0.000000000000e+00 3.826872197422e-01 9.238779637192e-01 0.000000000000e+00 3.826872399469e-01 9.238779553501e-01 0.000000000000e+00 3.826873188926e-01 9.238779226493e-01 0.000000000000e+00 3.826874570714e-01 9.238778654131e-01 0.000000000000e+00 3.826876569125e-01 9.238777826351e-01 0.000000000000e+00 3.826879353908e-01 9.238776672841e-01 0.000000000000e+00 3.826883569364e-01 9.238774926717e-01 0.000000000000e+00 3.826891195071e-01 9.238771767994e-01 0.000000000000e+00 3.826908029151e-01 9.238764794951e-01 0.000000000000e+00 3.826951542771e-01 9.238746770492e-01 0.000000000000e+00 3.827077518845e-01 9.238694586615e-01 0.000000000000e+00 3.827473906279e-01 9.238530375377e-01 0.000000000000e+00 3.828792955683e-01 9.237983789903e-01 0.000000000000e+00 3.833311520876e-01 9.236109721302e-01 0.000000000000e+00 3.850578305341e-01 9.228924461411e-01 0.000000000000e+00 2.922950587223e-01 9.563281856385e-01 0.000000000000e+00 2.906621259530e-01 9.568257566226e-01 0.000000000000e+00 2.903960611515e-01 9.569065407174e-01 0.000000000000e+00 2.903325900889e-01 9.569258002229e-01 0.000000000000e+00 2.903117218577e-01 9.569321314242e-01 0.000000000000e+00 2.903021957104e-01 9.569350213916e-01 0.000000000000e+00 2.902972147212e-01 9.569365324436e-01 0.000000000000e+00 2.902945760352e-01 9.569373329140e-01 0.000000000000e+00 2.902931767478e-01 9.569377573979e-01 0.000000000000e+00 2.902923941285e-01 9.569379948101e-01 0.000000000000e+00 2.902919000747e-01 9.569381446839e-01 0.000000000000e+00 2.902915448697e-01 9.569382524370e-01 0.000000000000e+00 2.902912736067e-01 9.569383347258e-01 0.000000000000e+00 2.902910723779e-01 9.569383957694e-01 0.000000000000e+00 2.902909385940e-01 9.569384363532e-01 0.000000000000e+00 2.902908674230e-01 9.569384579433e-01 0.000000000000e+00 2.902908485538e-01 9.569384636673e-01 0.000000000000e+00 2.902908703645e-01 9.569384570509e-01 0.000000000000e+00 2.902909321287e-01 9.569384383145e-01 0.000000000000e+00 2.902910663282e-01 9.569383976046e-01 0.000000000000e+00 2.902913721366e-01 9.569383048363e-01 0.000000000000e+00 2.902920596591e-01 9.569380962732e-01 0.000000000000e+00 2.902935037010e-01 9.569376582145e-01 0.000000000000e+00 2.902963116191e-01 9.569368064090e-01 0.000000000000e+00 2.903014808828e-01 9.569352382462e-01 0.000000000000e+00 2.903110795252e-01 9.569323262932e-01 0.000000000000e+00 2.903313309284e-01 9.569261822530e-01 0.000000000000e+00 2.903852854839e-01 9.569098107839e-01 0.000000000000e+00 2.905605690761e-01 9.568566014289e-01 0.000000000000e+00 2.911786208947e-01 9.566687047949e-01 0.000000000000e+00 2.936043275903e-01 9.559270363476e-01 0.000000000000e+00 1.980708017963e-01 9.801877154279e-01 0.000000000000e+00 1.956007494169e-01 9.806836119909e-01 0.000000000000e+00 1.952535024606e-01 9.807528076824e-01 0.000000000000e+00 1.952007769133e-01 9.807633030923e-01 0.000000000000e+00 1.951823473705e-01 9.807669709339e-01 0.000000000000e+00 1.951611315667e-01 9.807711928506e-01 0.000000000000e+00 1.951389731403e-01 9.807756018385e-01 0.000000000000e+00 1.951201200708e-01 9.807793527311e-01 0.000000000000e+00 1.951062862083e-01 9.807821047929e-01 0.000000000000e+00 1.950973391179e-01 9.807838845888e-01 0.000000000000e+00 1.950923416805e-01 9.807848786649e-01 0.000000000000e+00 1.950901843181e-01 9.807853077931e-01 0.000000000000e+00 1.950898831737e-01 9.807853676943e-01 0.000000000000e+00 1.950906919626e-01 9.807852068162e-01 0.000000000000e+00 1.950921272201e-01 9.807849213241e-01 0.000000000000e+00 1.950939607476e-01 9.807845566075e-01 0.000000000000e+00 1.950962033103e-01 9.807841105228e-01 0.000000000000e+00 1.950990854479e-01 9.807835372076e-01 0.000000000000e+00 1.951030312916e-01 9.807827522856e-01 0.000000000000e+00 1.951086124361e-01 9.807816420352e-01 0.000000000000e+00 1.951164550356e-01 9.807800818605e-01 0.000000000000e+00 1.951270571911e-01 9.807779726074e-01 0.000000000000e+00 1.951404683980e-01 9.807753043350e-01 0.000000000000e+00 1.951558201877e-01 9.807722497333e-01 0.000000000000e+00 1.951709145073e-01 9.807692461178e-01 0.000000000000e+00 1.951829250816e-01 9.807668559635e-01 0.000000000000e+00 1.951941554898e-01 9.807646209273e-01 0.000000000000e+00 1.952360650608e-01 9.807562790518e-01 0.000000000000e+00 1.954536996206e-01 9.807129301200e-01 0.000000000000e+00 1.963817899406e-01 9.805275073040e-01 0.000000000000e+00 2.001496819367e-01 9.797653315058e-01 0.000000000000e+00 1.051479960701e-01 9.944565847348e-01 0.000000000000e+00 9.869700567973e-02 9.951175312845e-01 0.000000000000e+00 9.734073007142e-02 9.952511151811e-01 0.000000000000e+00 9.719986163190e-02 9.952648827818e-01 0.000000000000e+00 9.736863973859e-02 9.952483850755e-01 0.000000000000e+00 9.758120288918e-02 9.952275663599e-01 0.000000000000e+00 9.776507531500e-02 9.952095206783e-01 0.000000000000e+00 9.790699965799e-02 9.951955684276e-01 0.000000000000e+00 9.801092874734e-02 9.951853384401e-01 0.000000000000e+00 9.808460568960e-02 9.951780796052e-01 0.000000000000e+00 9.813540002040e-02 9.951730720145e-01 0.000000000000e+00 9.816920963740e-02 9.951697374213e-01 0.000000000000e+00 9.819035631304e-02 9.951676511659e-01 0.000000000000e+00 9.820175970439e-02 9.951665259598e-01 0.000000000000e+00 9.820514281257e-02 9.951661921132e-01 0.000000000000e+00 9.820118871027e-02 9.951665823046e-01 0.000000000000e+00 9.818962841852e-02 9.951677229849e-01 0.000000000000e+00 9.816926363769e-02 9.951697320944e-01 0.000000000000e+00 9.813793543375e-02 9.951728219906e-01 0.000000000000e+00 9.809246363484e-02 9.951773050960e-01 0.000000000000e+00 9.802861294823e-02 9.951835966511e-01 0.000000000000e+00 9.794121011746e-02 9.951922022206e-01 0.000000000000e+00 9.782469400385e-02 9.952036621933e-01 0.000000000000e+00 9.767476537282e-02 9.952183881990e-01 0.000000000000e+00 9.749273871439e-02 9.952362362263e-01 0.000000000000e+00 9.729656293710e-02 9.952554339669e-01 0.000000000000e+00 9.714862663492e-02 9.952698851784e-01 0.000000000000e+00 9.722693504107e-02 9.952622383586e-01 0.000000000000e+00 9.801151855525e-02 9.951852803526e-01 0.000000000000e+00 1.007850544270e-01 9.949082233071e-01 0.000000000000e+00 1.094827990655e-01 9.939886904330e-01 0.000000000000e+00 -7.549651279288e-03 9.999715009767e-01 0.000000000000e+00 2.786270390187e-03 9.999961183411e-01 0.000000000000e+00 4.609104358023e-03 9.999893780221e-01 0.000000000000e+00 4.467980820837e-03 9.999900185239e-01 0.000000000000e+00 3.843742774707e-03 9.999926127935e-01 0.000000000000e+00 3.175227221195e-03 9.999949589533e-01 0.000000000000e+00 2.587004322824e-03 9.999966536987e-01 0.000000000000e+00 2.104036858392e-03 9.999977865120e-01 0.000000000000e+00 1.720188298804e-03 9.999985204750e-01 0.000000000000e+00 1.421193031495e-03 9.999989901047e-01 0.000000000000e+00 1.192437895918e-03 9.999992890457e-01 0.000000000000e+00 1.021429949815e-03 9.999994783403e-01 0.000000000000e+00 8.983753811889e-04 9.999995964608e-01 0.000000000000e+00 8.161179411914e-04 9.999996669757e-01 0.000000000000e+00 7.699049230243e-04 9.999997036232e-01 0.000000000000e+00 7.571555198353e-04 9.999997133577e-01 0.000000000000e+00 7.772927742987e-04 9.999996979079e-01 0.000000000000e+00 8.316518857892e-04 9.999996541775e-01 0.000000000000e+00 9.234553723964e-04 9.999995736150e-01 0.000000000000e+00 1.057823091748e-03 9.999994405050e-01 0.000000000000e+00 1.241749086684e-03 9.999992290293e-01 0.000000000000e+00 1.483900012472e-03 9.999988990198e-01 0.000000000000e+00 1.793914213646e-03 9.999983909346e-01 0.000000000000e+00 2.180466960706e-03 9.999976227791e-01 0.000000000000e+00 2.646382270606e-03 9.999964983243e-01 0.000000000000e+00 3.176626064455e-03 9.999949545107e-01 0.000000000000e+00 3.708797706527e-03 9.999931223861e-01 0.000000000000e+00 4.059680198132e-03 9.999917594644e-01 0.000000000000e+00 3.740303564019e-03 9.999930050402e-01 0.000000000000e+00 1.493603442864e-03 9.999988845738e-01 0.000000000000e+00 -6.187583465854e-03 9.999808567222e-01 0.000000000000e+00 
        </DataArray>
        <DataArray type="Float64" Name="NORMSTRESS_2" NumberOfComponents="3" format="ascii">
          0.000000000000e+00 0.000000000000e+00 1.000000000000e+00 0.000000000000e+00 0.000000000000e+00 1.000000000000e+00 0.000000000000e+00 0.000000000000e+00 1.000000000000e+00 0.000000000000e+00 0.000000000000e+00 1.000000000000e+00 0.000000000000e+00 0.000000000000e+00 1.000000000000e+00 0.000000000000e+00 0.000000000000e+00 1.000000000000e+00 0.000000000000e+00 0.000000000000e+00 1.000000000000e+00 0.000000000000e+00 0.000000000000e+00 1.000000000000e+00 0.000000000000e+00 0.000000000000e+00 1.000000000000e+00 0.000000000000e+00 0.000000000000e+00 1.000000000000e+00 0.000000000000e+00 0.000000000000e+00 1.000000000000e+00 0.000000000000e+00 0.000000000000e+00 1.000000000000e+00 0.000000000000e+00 0.000000000000e+00 1.000000000000e+00 0.000000000000e+00 0.000000000000e+00 1.000000000000e+00 0.000000000000e+00 0.000000000000e+00 1.000000000000e+00 0.000000000000e+00 0.000000000000e+00 1.000000000000e+00 0.000000000000e+00 0.000000000000e+00 1.000000000000e+00 0.000000000000e+00 0.000000000000e+00 1.000000000000e+00 0.000000000000e+00 0.000000000000e+00 1.000000000000e+00 0.000000000000e+00 0.000000000000e+00 1.000000000000e+00 0.000000000000e+00 0.000000000000e+00 1.000000000000e+00 0.000000000000e+00 0.000000000000e+00 1.000000000000e+00 0.000000000000e+00 0.000000000000e+00 1.000000000000e+00 0.000000000000e+00 0.000000000000e+00 1.000000000000e+00 0.000000000000e+00 0.000000000000e+00 1.000000000000e+00 0.000000000000e+00 0.000000000000e+00 1.000000000000e+00 0.000000000000e+00 0.000000000000e+00 1.000000000000e+00 0.000000000000e+00 0.000000000000e+00 1.000000000000e+00 0.000000000000e+00 0.000000000000e+00 1.000000000000e+00 0.000000000000e+00 0.000000000000e+00 1.000000000000e+00 0.000000000000e+00 0.000000000000e+00 1.000000000000e+00 0.000000000000e+00 0.000000000000e+00 1.000000000000e+00 0.000000000000e+00 0.000000000000e+00 1.000000000000e+00 0.000000000000e+00 0.000000000000e+00 1.000000000000e+00 0.000000000000e+00 0.000000000000e+00 1.000000000000e+00 0.000000000000e+00 0.000000000000e+00 1.000000000000e+00 0.000000000000e+00 0.000000000000e+00 1.000000000000e+00 0.000000000000e+00 0.000000000000e+00 1.000000000000e+00 0.000000000000e+00 0.000000000000e+00 1.000000000000e+00 0.000000000000e+00 0.000000000000e+00 1.000000000000e+00 0.000000000000e+00 0.000000000000e+00 1.000000000000e+00 0.000000000000e+00 0.000000000000e+00 1.000000000000e+00 0.000000000000e+00 0.000000000000e+00 1.000000000000e+00 0.000000000000e+00 0.000000000000e+00 1.000000000000e+00 0.000000000000e+00 0.000000000000e+00 1.000000000000e+00 0.000000000000e+00 0.000000000000e+00 1.000000000000e+00 0.000000000000e+00 0.000000000000e+00 1.000000000000e+00 0.000000000000e+00 0.000000000000e+00 1.000000000000e+00 0.000000000000e+00 0.000000000000e+00 1.000000000000e+00 0.000000000000e+00 0.000000000000e+00 1.000000000000e+00 0.000000000000e+00 0.000000000000e+00 1.000000000000e+00 0.000000000000e+00 0.000000000000e+00 1.000000000000e+00 0.000000000000e+00 0.000000000000e+00 1.000000000000e+00 0.000000000000e+00 0.000000000000e+00 1.000000000000e+00 0.000000000000e+00 0.000000000000e+00 1.000000000000e+00 0.000000000000e+00 0.000000000000e+00 1.000000000000e+00 0.000000000000e+00 0.000000000000e+00 1.000000000000e+00 0.000000000000e+00 0.000000000000e+00 1.000000000000e+00 0.000000000000e+00 0.000000000000e+00 1.000000000000e+00 0.000000000000e+00 0.000000000000e+00 1.000000000000e+00 0.000000000000e+00 0.000000000000e+00 1.000000000000e+00 0.000000000000e+00 0.000000000000e+00 1.000000000000e+00 0.000000000000e+00 0.000000000000e+00 1.000000000000e+00 0.000000000000e+00 0.000000000000e+00 1.000000000000e+00 0.000000000000e+00 0.000000000000e+00 1.000000000000e+00 0.000000000000e+00 0.000000000000e+00 1.000000000000e+00 0.000000000000e+00 0.000000000000e+00 1.000000000000e+00 0.000000000000e+00 0.000000000000e+00 1.000000000000e+00 0.000000000000e+00 0.000000000000e+00 1.000000000000e+00 0.000000000000e+00 0.000000000000e+00 1.000000000000e+00 0.000000000000e+00 0.000000000000e+00 1.000000000000e+00 0.000000000000e+00 0.000000000000e+00 1.000000000000e+00 0.000000000000e+00 0.000000000000e+00 1.000000000000e+00 0.000000000000e+00 0.000000000000e+00 1.000000000000e+00 0.000000000000e+00 0.000000000000e+00 1.000000000000e+00 0.000000000000e+00 0.000000000000e+00 1.000000000000e+00 0.000000000000e+00 0.000000000000e+00 1.000000000000e+00 0.000000000000e+00 0.000000000000e+00 1.000000000000e+00 0.000000000000e+00 0.000000000000e+00 1.000000000000e+00 0.000000000000e+00 0.000000000000e+00 1.000000000000e+00 0.000000000000e+00 0.000000000000e+00 1.000000000000e+00 0.000000000000e+00 0.000000000000e+00 1.000000000000e+00 0.000000000000e+00 0.000000000000e+00 1.000000000000e+00 0.000000000000e+00 0.000000000000e+00 1.000000000000e+00 0.000000000000e+00 0.000000000000e+00 1.000000000000e+00 0.000000000000e+00 0.000000000000e+00 1.000000000000e+00 0.000000000000e+00 0.000000000000e+00 1.000000000000e+00 0.000000000000e+00 0.000000000000e+00 1.000000000000e+00 0.000000000000e+00 0.000000000000e+00 1.000000000000e+00 0.000000000000e+00 0.000000000000e+00 1.000000000000e+00 0.000000000000e+00 0.000000000000e+00 1.000000000000e+00 0.000000000000e+00 0.000000000000e+00 1.000000000000e+00 0.000000000000e+00 0.000000000000e+00 1.000000000000e+00 0.000000000000e+00 0.000000000000e+00 1.000000000000e+00 0.000000000000e+00 0.000000000000e+00 1.000000000000e+00 0.000000000000e+00 0.000000000000e+00 1.000000000000e+00 0.000000000000e+00 0.000000000000e+00 1.000000000000e+00 0.000000000000e+00 0.000000000000e+00 1.000000000000e+00 0.000000000000e+00 0.000000000000e+00 1.000000000000e+00 0.000000000000e+00 0.000000000000e+00 1.000000000000e+00 0.000000000000e+00 0.000000000000e+00 1.000000000000e+00 0.000000000000e+00 0.000000000000e+00 1.000000000000e+00 0.000000000000e+00 0.000000000000e+00 1.000000000000e+00 0.000000000000e+00 0.000000000000e+00 1.000000000000e+00 0.000000000000e+00 0.000000000000e+00 1.000000000000e+00 0.000000000000e+00 0.000000000000e+00 1.000000000000e+00 0.000000000000e+00 0.000000000000e+00 1.000000000000e+00 0.000000000000e+00 0.000000000000e+00 1.000000000000e+00 0.000000000000e+00 0.000000000000e+00 1.000000000000e+00 0.000000000000e+00 0.000000000000e+00 1.000000000000e+00 0.000000000000e+00 0.000000000000e+00 1.000000000000e+00 0.000000000000e+00 0.000000000000e+00 1.000000000000e+00 0.000000000000e+00 0.000000000000e+00 1.000000000000e+00 0.000000000000e+00 0.000000000000e+00 1.000000000000e+00 0.000000000000e+00 0.000000000000e+00 1.000000000000e+00 0.000000000000e+00 0.000000000000e+00 1.000000000000e+00 0.000000000000e+00 0.000000000000e+00 1.000000000000e+00 0.000000000000e+00 0.000000000000e+00 1.000000000000e+00 0.000000000000e+00 0.000000000000e+00 1.000000000000e+00 0.000000000000e+00 0.000000000000e+00 1.000000000000e+00 0.000000000000e+00 0.000000000000e+00 1.000000000000e+00 0.000000000000e+00 0.000000000000e+00 1.000000000000e+00 0.000000000000e+00 0.000000000000e+00 1.000000000000e+00 0.000000000000e+00 0.000000000000e+00 1.000000000000e+00 0.000000000000e+00 0.000000000000e+00 1.000000000000e+00 0.000000000000e+00 0.000000000000e+00 1.000000000000e+00 0.000000000000e+00 0.000000000000e+00 1.000000000000e+00 0.000000000000e+00 0.000000000000e+00 1.000000000000e+00 0.000000000000e+00 0.000000000000e+00 1.000000000000e+00 0.000000000000e+00 0.000000000000e+00 1.000000000000e+00 0.000000000000e+00 0.000000000000e+00 1.000000000000e+00 0.000000000000e+00 0.000000000000e+00 1.000000000000e+00 0.000000000000e+00 0.000000000000e+00 1.000000000000e+00 0.000000000000e+00 0.000000000000e+00 1.000000000000e+00 0.000000000000e+00 0.000000000000e+00 1.000000000000e+00 0.000000000000e+00 0.000000000000e+00 1.000000000000e+00 0.000000000000e+00 0.000000000000e+00 1.000000000000e+00 0.000000000000e+00 0.000000000000e+00 1.000000000000e+00 0.000000000000e+00 0.000000000000e+00 1.000000000000e+00 0.000000000000e+00 0.000000000000e+00 1.000000000000e+00 0.000000000000e+00 0.000000000000e+00 1.000000000000e+00 0.000000000000e+00 0.000000000000e+00 1.000000000000e+00 0.000000000000e+00 0.000000000000e+00 1.000000000000e+00 0.000000000000e+00 0.000000000000e+00 1.000000000000e+00 0.000000000000e+00 0.000000000000e+00 1.000000000000e+00 0.000000000000e+00 0.000000000000e+00 1.000000000000e+00 0.000000000000e+00 0.000000000000e+00 1.000000000000e+00 0.000000000000e+00 0.000000000000e+00 1.000000000000e+00 0.000000000000e+00 0.000000000000e+00 1.000000000000e+00 0.000000000000e+00 0.000000000000e+00 1.000000000000e+00 0.000000000000e+00 0.000000000000e+00 1.000000000000e+00 0.000000000000e+00 0.000000000000e+00 1.000000000000e+00 0.000000000000e+00 0.000000000000e+00 1.000000000000e+00 0.000000000000e+00 0.000000000000e+00 1.000000000000e+00 0.000000000000e+00 0.000000000000e+00 1.000000000000e+00 0.000000000000e+00 0.000000000000e+00 1.000000000000e+00 0.000000000000e+00 0.000000000000e+00 1.000000000000e+00 0.000000000000e+00 0.000000000000e+00 1.000000000000e+00 0.000000000000e+00 0.000000000000e+00 1.000000000000e+00 0.000000000000e+00 0.000000000000e+00 1.000000000000e+00 0.000000000000e+00 0.000000000000e+00 1.000000000000e+00 0.000000000000e+00 0.000000000000e+00 1.000000000000e+00 0.000000000000e+00 0.000000000000e+00 1.000000000000e+00 0.000000000000e+00 0.000000000000e+00 1.000000000000e+00 0.000000000000e+00 0.000000000000e+00 1.000000000000e+00 0.000000000000e+00 0.000000000000e+00 1.000000000000e+00 0.000000000000e+00 0.000000000000e+00 1.000000000000e+00 0.000000000000e+00 0.000000000000e+00 1.000000000000e+00 0.000000000000e+00 0.000000000000e+00 1.000000000000e+00 0.000000000000e+00 0.000000000000e+00 1.000000000000e+00 0.000000000000e+00 0.000000000000e+00 1.000000000000e+00 0.000000000000e+00 0.000000000000e+00 1.000000000000e+00 0.000000000000e+00 0.000000000000e+00 1.000000000000e+00 0.000000000000e+00 0.000000000000e+00 1.000000000000e+00 0.000000000000e+00 0.000000000000e+00 1.000000000000e+00 0.000000000000e+00 0.000000000000e+00 1.000000000000e+00 0.000000000000e+00 0.000000000000e+00 1.000000000000e+00 0.000000000000e+00 0.000000000000e+00 1.000000000000e+00 0.000000000000e+00 0.000000000000e+00 1.000000000000e+00 0.000000000000e+00 0.000000000000e+00 1.000000000000e+00 0.000000000000e+00 0.000000000000e+00 1.000000000000e+00 0.000000000000e+00 0.000000000000e+00 1.000000000000e+00 0.000000000000e+00 0.000000000000e+00 1.000000000000e+00 0.000000000000e+00 0.000000000000e+00 1.000000000000e+00 0.000000000000e+00 0.000000000000e+00 1.000000000000e+00 0.000000000000e+00 0.000000000000e+00 1.000000000000e+00 0.000000000000e+00 0.000000000000e+00 1.000000000000e+00 0.000000000000e+00 0.000000000000e+00 1.000000000000e+00 0.000000000000e+00 0.000000000000e+00 1.000000000000e+00 0.000000000000e+00 0.000000000000e+00 1.000000000000e+00 0.000000000000e+00 0.000000000000e+00 1.000000000000e+00 0.000000000000e+00 0.000000000000e+00 1.000000000000e+00 0.000000000000e+00 0.000000000000e+00 1.000000000000e+00 0.000000000000e+00 0.000000000000e+00 1.000000000000e+00 0.000000000000e+00 0.000000000000e+00 1.000000000000e+00 0.000000000000e+00 0.000000000000e+00 1.000000000000e+00 0.000000000000e+00 0.000000000000e+00 1.000000000000e+00 0.000000000000e+00 0.000000000000e+00 1.000000000000e+00 0.000000000000e+00 0.000000000000e+00 1.000000000000e+00 0.000000000000e+00 0.000000000000e+00 1.000000000000e+00 0.000000000000e+00 0.000000000000e+00 1.000000000000e+00 0.000000000000e+00 0.000000000000e+00 1.000000000000e+00 0.000000000000e+00 0.000000000000e+00 1.000000000000e+00 0.000000000000e+00 0.000000000000e+00 1.000000000000e+00 0.000000000000e+00 0.000000000000e+00 1.000000000000e+00 0.000000000000e+00 0.000000000000e+00 1.000000000000e+00 0.000000000000e+00 0.000000000000e+00 1.000000000000e+00 0.000000000000e+00 0.000000000000e+00 1.000000000000e+00 0.000000000000e+00 0.000000000000e+00 1.000000000000e+00 0.000000000000e+00 0.000000000000e+00 1.000000000000e+00 0.000000000000e+00 0.000000000000e+00 1.000000000000e+00 0.000000000000e+00 0.000000000000e+00 1.000000000000e+00 0.000000000000e+00 0.000000000000e+00 1.000000000000e+00 0.000000000000e+00 0.000000000000e+00 1.000000000000e+00 0.000000000000e+00 0.000000000000e+00 1.000000000000e+00 0.000000000000e+00 0.000000000000e+00 1.000000000000e+00 0.000000000000e+00 0.000000000000e+00 1.000000000000e+00 0.000000000000e+00 0.000000000000e+00 1.000000000000e+00 0.000000000000e+00 0.000000000000e+00 1.000000000000e+00 0.000000000000e+00 0.000000000000e+00 1.000000000000e+00 0.000000000000e+00 0.000000000000e+00 1.000000000000e+00 0.000000000000e+00 0.000000000000e+00 1.000000000000e+00 0.000000000000e+00 0.000000000000e+00 1.000000000000e+00 0.000000000000e+00 0.000000000000e+00 1.000000000000e+00 0.000000000000e+00 0.000000000000e+00 1.000000000000e+00 0.000000000000e+00 0.000000000000e+00 1.000000000000e+00 0.000000000000e+00 0.000000000000e+00 1.000000000000e+00 0.000000000000e+00 0.000000000000e+00 1.000000000000e+00 0.000000000000e+00 0.000000000000e+00 1.000000000000e+00 0.000000000000e+00 0.000000000000e+00 1.000000000000e+00 0.000000000000e+00 0.000000000000e+00 1.000000000000e+00 0.000000000000e+00 0.000000000000e+00 1.000000000000e+00 0.000000000000e+00 0.000000000000e+00 1.000000000000e+00 0.000000000000e+00 0.000000000000e+00 1.000000000000e+00 0.000000000000e+00 0.000000000000e+00 1.000000000000e+00 0.000000000000e+00 0.000000000000e+00 1.000000000000e+00 0.000000000000e+00 0.000000000000e+00 1.000000000000e+00 0.000000000000e+00 0.000000000000e+00 1.000000000000e+00 0.000000000000e+00 0.000000000000e+00 1.000000000000e+00 0.000000000000e+00 0.000000000000e+00 1.000000000000e+00 0.000000000000e+00 0.000000000000e+00 1.000000000000e+00 0.000000000000e+00 0.000000000000e+00 1.000000000000e+00 0.000000000000e+00 0.000000000000e+00 1.000000000000e+00 0.000000000000e+00 0.000000000000e+00 1.000000000000e+00 0.000000000000e+00 0.000000000000e+00 1.000000000000e+00 0.000000000000e+00 0.000000000000e+00 1.000000000000e+00 0.000000000000e+00 0.000000000000e+00 1.000000000000e+00 0.000000000000e+00 0.000000000000e+00 1.000000000000e+00 0.000000000000e+00 0.000000000000e+00 1.000000000000e+00 0.000000000000e+00 0.000000000000e+00 1.000000000000e+00 0.000000000000e+00 0.000000000000e+00 1.000000000000e+00 0.000000000000e+00 0.000000000000e+00 1.000000000000e+00 0.000000000000e+00 0.000000000000e+00 1.000000000000e+00 0.000000000000e+00 0.000000000000e+00 1.000000000000e+00 0.000000000000e+00 0.000000000000e+00 1.000000000000e+00 0.000000000000e+00 0.000000000000e+00 1.000000000000e+00 0.000000000000e+00 0.000000000000e+00 1.000000000000e+00 0.000000000000e+00 0.000000000000e+00 1.000000000000e+00 0.000000000000e+00 0.000000000000e+00 1.000000000000e+00 0.000000000000e+00 0.000000000000e+00 1.000000000000e+00 0.000000000000e+00 0.000000000000e+00 1.000000000000e+00 0.000000000000e+00 0.000000000000e+00 1.000000000000e+00 0.000000000000e+00 0.000000000000e+00 1.000000000000e+00 0.000000000000e+00 0.000000000000e+00 1.000000000000e+00 0.000000000000e+00 0.000000000000e+00 1.000000000000e+00 0.000000000000e+00 0.000000000000e+00 1.000000000000e+00 0.000000000000e+00 0.000000000000e+00 1.000000000000e+00 0.000000000000e+00 0.000000000000e+00 1.000000000000e+00 0.000000000000e+00 0.000000000000e+00 1.000000000000e+00 0.000000000000e+00 0.000000000000e+00 1.000000000000e+00 0.000000000000e+00 0.000000000000e+00 1.000000000000e+00 0.000000000000e+00 0.000000000000e+00 1.000000000000e+00 0.000000000000e+00 0.000000000000e+00 1.000000000000e+00 0.000000000000e+00 0.000000000000e+00 1.000000000000e+00 0.000000000000e+00 0.000000000000e+00 1.000000000000e+00 0.000000000000e+00 0.000000000000e+00 1.000000000000e+00 0.000000000000e+00 0.000000000000e+00 1.000000000000e+00 0.000000000000e+00 0.000000000000e+00 1.000000000000e+00 0.000000000000e+00 0.000000000000e+00 1.000000000000e+00 0.000000000000e+00 0.000000000000e+00 1.000000000000e+00 0.000000000000e+00 0.000000000000e+00 1.000000000000e+00 0.000000000000e+00 0.000000000000e+00 1.000000000000e+00 0.000000000000e+00 0.000000000000e+00 1.000000000000e+00 0.000000000000e+00 0.000000000000e+00 1.000000000000e+00 0.000000000000e+00 0.000000000000e+00 1.000000000000e+00 0.000000000000e+00 0.000000000000e+00 1.000000000000e+00 0.000000000000e+00 0.000000000000e+00 1.000000000000e+00 0.000000000000e+00 0.000000000000e+00 1.000000000000e+00 0.000000000000e+00 0.000000000000e+00 1.000000000000e+00 0.000000000000e+00 0.000000000000e+00 1.000000000000e+00 0.000000000000e+00 0.000000000000e+00 1.000000000000e+00 0.000000000000e+00 0.000000000000e+00 1.000000000000e+00 0.000000000000e+00 0.000000000000e+00 1.000000000000e+00 0.000000000000e+00 0.000000000000e+00 1.000000000000e+00 0.000000000000e+00 0.000000000000e+00 1.000000000000e+00 0.000000000000e+00 0.000000000000e+00 1.000000000000e+00 0.000000000000e+00 0.000000000000e+00 1.000000000000e+00 0.000000000000e+00 0.000000000000e+00 1.000000000000e+00 0.000000000000e+00 0.000000000000e+00 1.000000000000e+00 0.000000000000e+00 0.000000000000e+00 1.000000000000e+00 0.000000000000e+00 0.000000000000e+00 1.000000000000e+00 0.000000000000e+00 0.000000000000e+00 1.000000000000e+00 0.000000000000e+00 0.000000000000e+00 1.000000000000e+00 0.000000000000e+00 0.000000000000e+00 1.000000000000e+00 0.000000000000e+00 0.000000000000e+00 1.000000000000e+00 0.000000000000e+00 0.000000000000e+00 1.000000000000e+00 0.000000000000e+00 0.000000000000e+00 1.000000000000e+00 0.000000000000e+00 0.000000000000e+00 1.000000000000e+00 0.000000000000e+00 0.000000000000e+00 1.000000000000e+00 0.000000000000e+00 0.000000000000e+00 1.000000000000e+00 0.000000000000e+00 0.000000000000e+00 1.000000000000e+00 0.000000000000e+00 0.000000000000e+00 1.000000000000e+00 0.000000000000e+00 0.000000000000e+00 1.000000000000e+00 0.000000000000e+00 0.000000000000e+00 1.000000000000e+00 0.000000000000e+00 0.000000000000e+00 1.000000000000e+00 0.000000000000e+00 0.000000000000e+00 1.000000000000e+00 0.000000000000e+00 0.000000000000e+00 1.000000000000e+00 0.000000000000e+00 0.000000000000e+00 1.000000000000e+00 0.000000000000e+00 0.000000000000e+00 1.000000000000e+00 0.000000000000e+00 0.000000000000e+00 1.000000000000e+00 0.000000000000e+00 0.000000000000e+00 1.000000000000e+00 0.000000000000e+00 0.000000000000e+00 1.000000000000e+00 0.000000000000e+00 0.000000000000e+00 1.000000000000e+00 0.000000000000e+00 0.000000000000e+00 1.000000000000e+00 0.000000000000e+00 0.000000000000e+00 1.000000000000e+00 0.000000000000e+00 0.000000000000e+00 1.000000000000e+00 0.000000000000e+00 0.000000000000e+00 1.000000000000e+00 0.000000000000e+00 0.000000000000e+00 1.000000000000e+00 0.000000000000e+00 0.000000000000e+00 1.000000000000e+00 0.000000000000e+00 0.000000000000e+00 1.000000000000e+00 0.000000000000e+00 0.000000000000e+00 1.000000000000e+00 0.000000000000e+00 0.000000000000e+00 1.000000000000e+00 0.000000000000e+00 0.000000000000e+00 1.000000000000e+00 0.000000000000e+00 0.000000000000e+00 1.000000000000e+00 0.000000000000e+00 0.000000000000e+00 1.000000000000e+00 0.000000000000e+00 0.000000000000e+00 1.000000000000e+00 0.000000000000e+00 0.000000000000e+00 1.000000000000e+00 0.000000000000e+00 0.000000000000e+00 1.000000000000e+00 0.000000000000e+00 0.000000000000e+00 1.000000000000e+00 0.000000000000e+00 0.000000000000e+00 1.000000000000e+00 0.000000000000e+00 0.000000000000e+00 1.000000000000e+00 0.000000000000e+00 0.000000000000e+00 1.000000000000e+00 0.000000000000e+00 0.000000000000e+00 1.000000000000e+00 0.000000000000e+00 0.000000000000e+00 1.000000000000e+00 0.000000000000e+00 0.000000000000e+00 1.000000000000e+00 0.000000000000e+00 0.000000000000e+00 1.000000000000e+00 0.000000000000e+00 0.000000000000e+00 1.000000000000e+00 0.000000000000e+00 0.000000000000e+00 1.000000000000e+00 0.000000000000e+00 0.000000000000e+00 1.000000000000e+00 0.000000000000e+00 0.000000000000e+00 1.000000000000e+00 0.000000000000e+00 0.000000000000e+00 1.000000000000e+00 0.000000000000e+00 0.000000000000e+00 1.000000000000e+00 0.000000000000e+00 0.000000000000e+00 1.000000000000e+00 0.000000000000e+00 0.000000000000e+00 1.000000000000e+00 0.000000000000e+00 0.000000000000e+00 1.000000000000e+00 0.000000000000e+00 0.000000000000e+00 1.000000000000e+00 0.000000000000e+00 0.000000000000e+00 1.000000000000e+00 0.000000000000e+00 0.000000000000e+00 1.000000000000e+00 0.000000000000e+00 0.000000000000e+00 1.000000000000e+00 0.000000000000e+00 0.000000000000e+00 1.000000000000e+00 0.000000000000e+00 0.000000000000e+00 1.000000000000e+00 0.000000000000e+00 0.000000000000e+00 1.000000000000e+00 0.000000000000e+00 0.000000000000e+00 1.000000000000e+00 0.000000000000e+00 0.000000000000e+00 1.000000000000e+00 0.000000000000e+00 0.000000000000e+00 1.000000000000e+00 0.000000000000e+00 0.000000000000e+00 1.000000000000e+00 0.000000000000e+00 0.000000000000e+00 1.000000000000e+00 0.000000000000e+00 0.000000000000e+00 1.000000000000e+00 0.000000000000e+00 0.000000000000e+00 1.000000000000e+00 0.000000000000e+00 0.000000000000e+00 1.000000000000e+00 0.000000000000e+00 0.000000000000e+00 1.000000000000e+00 0.000000000000e+00 0.000000000000e+00 1.000000000000e+00 0.000000000000e+00 0.000000000000e+00 1.000000000000e+00 0.000000000000e+00 0.000000000000e+00 1.000000000000e+00 0.000000000000e+00 0.000000000000e+00 1.000000000000e+00 0.000000000000e+00 0.000000000000e+00 1.000000000000e+00 0.000000000000e+00 0.000000000000e+00 1.000000000000e+00 0.000000000000e+00 0.000000000000e+00 1.000000000000e+00 0.000000000000e+00 0.000000000000e+00 1.000000000000e+00 0.000000000000e+00 0.000000000000e+00 1.000000000000e+00 0.000000000000e+00 0.000000000000e+00 1.000000000000e+00 0.000000000000e+00 0.000000000000e+00 1.000000000000e+00 0.000000000000e+00 0.000000000000e+00 1.000000000000e+00 0.000000000000e+00 0.000000000000e+00 1.000000000000e+00 0.000000000000e+00 0.000000000000e+00 1.000000000000e+00 0.000000000000e+00 0.000000000000e+00 1.000000000000e+00 0.000000000000e+00 0.000000000000e+00 1.000000000000e+00 0.000000000000e+00 0.000000000000e+00 1.000000000000e+00 0.000000000000e+00 0.000000000000e+00 1.000000000000e+00 0.000000000000e+00 0.000000000000e+00 1.000000000000e+00 0.000000000000e+00 0.000000000000e+00 1.000000000000e+00 0.000000000000e+00 0.000000000000e+00 1.000000000000e+00 0.000000000000e+00 0.000000000000e+00 1.000000000000e+00 0.000000000000e+00 0.000000000000e+00 1.000000000000e+00 0.000000000000e+00 0.000000000000e+00 1.000000000000e+00 0.000000000000e+00 0.000000000000e+00 1.000000000000e+00 0.000000000000e+00 0.000000000000e+00 1.000000000000e+00 0.000000000000e+00 0.000000000000e+00 1.000000000000e+00 0.000000000000e+00 0.000000000000e+00 1.000000000000e+00 0.000000000000e+00 0.000000000000e+00 1.000000000000e+00 0.000000000000e+00 0.000000000000e+00 1.000000000000e+00 0.000000000000e+00 0.000000000000e+00 1.000000000000e+00 0.000000000000e+00 0.000000000000e+00 1.000000000000e+00 0.000000000000e+00 0.000000000000e+00 1.000000000000e+00 0.000000000000e+00 0.000000000000e+00 1.000000000000e+00 0.000000000000e+00 0.000000000000e+00 1.000000000000e+00 0.000000000000e+00 0.000000000000e+00 1.000000000000e+00 0.000000000000e+00 0.000000000000e+00 1.000000000000e+00 0.000000000000e+00 0.000000000000e+00 1.000000000000e+00 0.000000000000e+00 0.000000000000e+00 1.000000000000e+00 0.000000000000e+00 0.000000000000e+00 1.000000000000e+00 0.000000000000e+00 0.000000000000e+00 1.000000000000e+00 0.000000000000e+00 0.000000000000e+00 1.000000000000e+00 0.000000000000e+00 0.000000000000e+00 1.000000000000e+00 0.000000000000e+00 0.000000000000e+00 1.000000000000e+00 0.000000000000e+00 0.000000000000e+00 1.000000000000e+00 0.000000000000e+00 0.000000000000e+00 1.000000000000e+00 0.000000000000e+00 0.000000000000e+00 1.000000000000e+00 0.000000000000e+00 0.000000000000e+00 1.000000000000e+00 0.000000000000e+00 0.000000000000e+00 1.000000000000e+00 0.000000000000e+00 0.000000000000e+00 1.000000000000e+00 0.000000000000e+00 0.000000000000e+00 1.000000000000e+00 0.000000000000e+00 0.000000000000e+00 1.000000000000e+00 0.000000000000e+00 0.000000000000e+00 1.000000000000e+00 0.000000000000e+00 0.000000000000e+00 1.000000000000e+00 0.000000000000e+00 0.000000000000e+00 1.000000000000e+00 0.000000000000e+00 0.000000000000e+00 1.000000000000e+00 0.000000000000e+00 0.000000000000e+00 1.000000000000e+00 0.000000000000e+00 0.000000000000e+00 1.000000000000e+00 0.000000000000e+00 0.000000000000e+00 1.000000000000e+00 0.000000000000e+00 0.000000000000e+00 1.000000000000e+00 0.000000000000e+00 0.000000000000e+00 1.000000000000e+00 0.000000000000e+00 0.000000000000e+00 1.000000000000e+00 0.000000000000e+00 0.000000000000e+00 1.000000000000e+00 0.000000000000e+00 0.000000000000e+00 1.000000000000e+00 0.000000000000e+00 0.000000000000e+00 1.000000000000e+00 0.000000000000e+00 0.000000000000e+00 1.000000000000e+00 0.000000000000e+00 0.000000000000e+00 1.000000000000e+00 0.000000000000e+00 0.000000000000e+00 1.000000000000e+00 0.000000000000e+00 0.000000000000e+00 1.000000000000e+00 0.000000000000e+00 0.000000000000e+00 1.000000000000e+00 0.000000000000e+00 0.000000000000e+00 1.000000000000e+00 0.000000000000e+00 0.000000000000e+00 1.000000000000e+00 0.000000000000e+00 0.000000000000e+00 1.000000000000e+00 0.000000000000e+00 0.000000000000e+00 1.000000000000e+00 0.000000000000e+00 0.000000000000e+00 1.000000000000e+00 0.000000000000e+00 0.000000000000e+00 1.000000000000e+00 0.000000000000e+00 0.000000000000e+00 1.000000000000e+00 0.000000000000e+00 0.000000000000e+00 1.000000000000e+00 0.000000000000e+00 0.000000000000e+00 1.000000000000e+00 0.000000000000e+00 0.000000000000e+00 1.000000000000e+00 0.000000000000e+00 0.000000000000e+00 1.000000000000e+00 0.000000000000e+00 0.000000000000e+00 1.000000000000e+00 0.000000000000e+00 0.000000000000e+00 1.000000000000e+00 0.000000000000e+00 0.000000000000e+00 1.000000000000e+00 0.000000000000e+00 0.000000000000e+00 1.000000000000e+00 0.000000000000e+00 0.000000000000e+00 1.000000000000e+00 0.000000000000e+00 0.000000000000e+00 1.000000000000e+00 0.000000000000e+00 0.000000000000e+00 1.000000000000e+00 0.000000000000e+00 0.000000000000e+00 1.000000000000e+00 0.000000000000e+00 0.000000000000e+00 1.000000000000e+00 0.000000000000e+00 0.000000000000e+00 1.000000000000e+00 0.000000000000e+00 0.000000000000e+00 1.000000000000e+00 0.000000000000e+00 0.000000000000e+00 1.000000000000e+00 0.000000000000e+00 0.000000000000e+00 1.000000000000e+00 0.000000000000e+00 0.000000000000e+00 1.000000000000e+00 0.000000000000e+00 0.000000000000e+00 1.000000000000e+00 0.000000000000e+00 0.000000000000e+00 1.000000000000e+00 0.000000000000e+00 0.000000000000e+00 1.000000000000e+00 0.000000000000e+00 0.000000000000e+00 1.000000000000e+00 0.000000000000e+00 0.000000000000e+00 1.000000000000e+00 0.000000000000e+00 0.000000000000e+00 1.000000000000e+00 0.000000000000e+00 0.000000000000e+00 1.000000000000e+00 0.000000000000e+00 0.000000000000e+00 1.000000000000e+00 0.000000000000e+00 0.000000000000e+00 1.000000000000e+00 0.000000000000e+00 0.000000000000e+00 1.000000000000e+00 0.000000000000e+00 0.000000000000e+00 1.000000000000e+00 0.000000000000e+00 0.000000000000e+00 1.000000000000e+00 0.000000000000e+00 0.000000000000e+00 1.000000000000e+00 0.000000000000e+00 0.000000000000e+00 1.000000000000e+00 0.000000000000e+00 0.000000000000e+00 1.000000000000e+00 0.000000000000e+00 0.000000000000e+00 1.000000000000e+00 0.000000000000e+00 0.000000000000e+00 1.000000000000e+00 0.000000000000e+00 0.000000000000e+00 1.000000000000e+00 0.000000000000e+00 0.000000000000e+00 1.000000000000e+00 0.000000000000e+00 0.000000000000e+00 1.000000000000e+00 0.000000000000e+00 0.000000000000e+00 1.000000000000e+00 0.000000000000e+00 0.000000000000e+00 1.000000000000e+00 0.000000000000e+00 0.000000000000e+00 1.000000000000e+00 0.000000000000e+00 0.000000000000e+00 1.000000000000e+00 0.000000000000e+00 0.000000000000e+00 1.000000000000e+00 0.000000000000e+00 0.000000000000e+00 1.000000000000e+00 0.000000000000e+00 0.000000000000e+00 1.000000000000e+00 0.000000000000e+00 0.000000000000e+00 1.000000000000e+00 9.949082233071e-01 -1.007850544270e-01 0.000000000000e+00 9.939886904330e-01 -1.094827990655e-01 0.000000000000e+00 0.000000000000e+00 0.000000000000e+00 1.000000000000e+00 0.000000000000e+00 0.000000000000e+00 1.000000000000e+00 0.000000000000e+00 0.000000000000e+00 1.000000000000e+00 0.000000000000e+00 0.000000000000e+00 1.000000000000e+00 0.000000000000e+00 0.000000000000e+00 1.000000000000e+00 0.000000000000e+00 0.000000000000e+00 1.000000000000e+00 9.999966536987e-01 -2.587004322824e-03 0.000000000000e+00 9.999977865120e-01 -2.104036858392e-03 0.000000000000e+00 9.999985204750e-01 -1.720188298804e-03 0.000000000000e+00 9.999989901047e-01 -1.421193031495e-03 0.000000000000e+00 9.999992890457e-01 -1.192437895918e-03 0.000000000000e+00 9.999994783403e-01 -1.021429949815e-03 0.000000000000e+00 9.999995964608e-01 -8.983753811889e-04 0.000000000000e+00 9.999996669757e-01 -8.161179411914e-04 0.000000000000e+00 9.999997036232e-01 -7.699049230243e-04 0.000000000000e+00 9.999997133577e-01 -7.571555198353e-04 0.000000000000e+00 9.999996979079e-01 -7.772927742987e-04 0.000000000000e+00 9.999996541775e-01 -8.316518857892e-04 0.000000000000e+00 9.999995736150e-01 -9.234553723964e-04 0.000000000000e+00 9.999994405050e-01 -1.057823091748e-03 0.000000000000e+00 9.999992290293e-01 -1.241749086684e-03 0.000000000000e+00 9.999988990198e-01 -1.483900012472e-03 0.000000000000e+00 9.999983909346e-01 -1.793914213646e-03 0.000000000000e+00 9.999976227791e-01 -2.180466960706e-03 0.000000000000e+00 0.000000000000e+00 0.000000000000e+00 1.000000000000e+00 0.000000000000e+00 0.000000000000e+00 1.000000000000e+00 0.000000000000e+00 0.000000000000e+00 1.000000000000e+00 0.000000000000e+00 0.000000000000e+00 1.000000000000e+00 0.000000000000e+00 0.000000000000e+00 1.000000000000e+00 0.000000000000e+00 0.000000000000e+00 1.000000000000e+00 0.000000000000e+00 0.000000000000e+00 1.000000000000e+00 
        </DataArray>
        <DataArray type="Float64" Name="NORMSTRESS_3" NumberOfComponents="3" format="ascii">
          -8.598599355576e-04 9.999996303204e-01 0.000000000000e+00 -5.942332577605e-04 9.999998234434e-01 0.000000000000e+00 -4.420796244026e-04 9.999999022828e-01 0.000000000000e+00 -3.403128369524e-04 9.999999420936e-01 0.000000000000e+00 -2.695456528411e-04 9.999999636726e-01 0.000000000000e+00 -2.195853093561e-04 9.999999758911e-01 0.000000000000e+00 -1.840475508993e-04 9.999999830632e-01 0.000000000000e+00 -1.586257028236e-04 9.999999874189e-01 0.000000000000e+00 -1.403286938332e-04 9.999999901539e-01 0.000000000000e+00 -1.270499102937e-04 9.999999919292e-01 0.000000000000e+00 -1.172890756734e-04 9.999999931216e-01 0.000000000000e+00 -1.099629357327e-04 9.999999939541e-01 0.000000000000e+00 -1.042724449009e-04 9.999999945636e-01 0.000000000000e+00 -9.960774529326e-05 9.999999950391e-01 0.000000000000e+00 -9.547729045793e-05 9.999999954420e-01 0.000000000000e+00 -9.145331045480e-05 9.999999958181e-01 0.000000000000e+00 -8.712605886289e-05 9.999999962045e-01 0.000000000000e+00 -8.206268376172e-05 9.999999966329e-01 0.000000000000e+00 -7.576513057768e-05 9.999999971298e-01 0.000000000000e+00 -6.762437540116e-05 9.999999977135e-01 0.000000000000e+00 -5.686603214094e-05 9.999999983831e-01 0.000000000000e+00 -4.248412888472e-05 9.999999990975e-01 0.000000000000e+00 -2.315644957386e-05 9.999999997319e-01 0.000000000000e+00 2.862366556466e-06 9.999999999959e-01 0.000000000000e+00 3.787420960523e-05 9.999999992828e-01 0.000000000000e+00 8.489058844259e-05 9.999999963968e-01 0.000000000000e+00 1.477643307340e-04 9.999999890829e-01 0.000000000000e+00 2.311272969517e-04 9.999999732901e-01 0.000000000000e+00 3.395219812767e-04 9.999999423624e-01 0.000000000000e+00 4.736369517458e-04 9.999998878340e-01 0.000000000000e+00 6.114318161227e-04 9.999998130755e-01 0.000000000000e+00 -9.795174895403e-02 9.951911649914e-01 0.000000000000e+00 -9.800493941171e-02 9.951859282822e-01 0.000000000000e+00 -9.801426547114e-02 9.951850098168e-01 0.000000000000e+00 -9.801641431301e-02 9.951847981783e-01 0.000000000000e+00 -9.801696325882e-02 9.951847441121e-01 0.000000000000e+00 -9.801714419097e-02 9.951847262919e-01 0.000000000000e+00 -9.801723403909e-02 9.951847174426e-01 0.000000000000e+00 -9.801729663965e-02 9.951847112770e-01 0.000000000000e+00 -9.801734728171e-02 9.951847062892e-01 0.000000000000e+00 -9.801738991249e-02 9.951847020904e-01 0.000000000000e+00 -9.801742592460e-02 9.951846985435e-01 0.000000000000e+00 -9.801745585617e-02 9.951846955955e-01 0.000000000000e+00 -9.801748003180e-02 9.951846932144e-01 0.000000000000e+00 -9.801749839501e-02 9.951846914058e-01 0.000000000000e+00 -9.801751134134e-02 9.951846901307e-01 0.000000000000e+00 -9.801751897101e-02 9.951846893792e-01 0.000000000000e+00 -9.801752149293e-02 9.951846891308e-01 0.000000000000e+00 -9.801751857358e-02 9.951846894183e-01 0.000000000000e+00 -9.801751049584e-02 9.951846902139e-01 0.000000000000e+00 -9.801749723458e-02 9.951846915201e-01 0.000000000000e+00 -9.801747912295e-02 9.951846933039e-01 0.000000000000e+00 -9.801745548715e-02 9.951846956318e-01 0.000000000000e+00 -9.801742510734e-02 9.951846986240e-01 0.000000000000e+00 -9.801738237359e-02 9.951847028329e-01 0.000000000000e+00 -9.801730738114e-02 9.951847102190e-01 0.000000000000e+00 -9.801712708094e-02 9.951847279771e-01 0.000000000000e+00 -9.801658631957e-02 9.951847812373e-01 0.000000000000e+00 -9.801480074238e-02 9.951849570986e-01 0.000000000000e+00 -9.800874236268e-02 9.951855537640e-01 0.000000000000e+00 -9.798814049273e-02 9.951875824802e-01 0.000000000000e+00 -9.791143126591e-02 9.951951324376e-01 0.000000000000e+00 -1.949601817838e-01 9.808111579294e-01 0.000000000000e+00 -1.950660324635e-01 9.807901115830e-01 0.000000000000e+00 -1.950845823718e-01 9.807864220720e-01 0.000000000000e+00 -1.950888502741e-01 9.807855731498e-01 0.000000000000e+00 -1.950899352424e-01 9.807853573372e-01 0.000000000000e+00 -1.950902887191e-01 9.807852870264e-01 0.000000000000e+00 -1.950904614788e-01 9.807852526624e-01 0.000000000000e+00 -1.950905802919e-01 9.807852290289e-01 0.000000000000e+00 -1.950906757595e-01 9.807852100392e-01 0.000000000000e+00 -1.950907560631e-01 9.807851940658e-01 0.000000000000e+00 -1.950908237792e-01 9.807851805962e-01 0.000000000000e+00 -1.950908800512e-01 9.807851694030e-01 0.000000000000e+00 -1.950909254987e-01 9.807851603629e-01 0.000000000000e+00 -1.950909605595e-01 9.807851533889e-01 0.000000000000e+00 -1.950909853033e-01 9.807851484670e-01 0.000000000000e+00 -1.950909999297e-01 9.807851455576e-01 0.000000000000e+00 -1.950910046756e-01 9.807851446136e-01 0.000000000000e+00 -1.950909998854e-01 9.807851455664e-01 0.000000000000e+00 -1.950909854751e-01 9.807851484328e-01 0.000000000000e+00 -1.950909614544e-01 9.807851532108e-01 0.000000000000e+00 -1.950909277752e-01 9.807851599101e-01 0.000000000000e+00 -1.950908842176e-01 9.807851685742e-01 0.000000000000e+00 -1.950908282149e-01 9.807851797139e-01 0.000000000000e+00 -1.950907487678e-01 9.807851955169e-01 0.000000000000e+00 -1.950906050267e-01 9.807852241089e-01 0.000000000000e+00 -1.950902523226e-01 9.807852942661e-01 0.000000000000e+00 -1.950891828676e-01 9.807855069933e-01 0.000000000000e+00 -1.950856373233e-01 9.807862122349e-01 0.000000000000e+00 -1.950735890063e-01 9.807886086574e-01 0.000000000000e+00 -1.950325979369e-01 9.807967606706e-01 0.000000000000e+00 -1.948799298718e-01 9.808271065449e-01 0.000000000000e+00 -2.900910676278e-01 9.569990451837e-01 0.000000000000e+00 -2.902485157745e-01 9.569513044511e-01 0.000000000000e+00 -2.902760829127e-01 9.569429427551e-01 0.000000000000e+00 -2.902824104749e-01 9.569410233493e-01 0.000000000000e+00 -2.902840060208e-01 9.569405393485e-01 0.000000000000e+00 -2.902845148649e-01 9.569403849925e-01 0.000000000000e+00 -2.902847563042e-01 9.569403117527e-01 0.000000000000e+00 -2.902849191933e-01 9.569402623408e-01 0.000000000000e+00 -2.902850487862e-01 9.569402230292e-01 0.000000000000e+00 -2.902851570694e-01 9.569401901818e-01 0.000000000000e+00 -2.902852481580e-01 9.569401625503e-01 0.000000000000e+00 -2.902853239564e-01 9.569401395571e-01 0.000000000000e+00 -2.902853850352e-01 9.569401210290e-01 0.000000000000e+00 -2.902854317989e-01 9.569401068433e-01 0.000000000000e+00 -2.902854649332e-01 9.569400967921e-01 0.000000000000e+00 -2.902854851921e-01 9.569400906466e-01 0.000000000000e+00 -2.902854923929e-01 9.569400884623e-01 0.000000000000e+00 -2.902854863153e-01 9.569400903059e-01 0.000000000000e+00 -2.902854671475e-01 9.569400961204e-01 0.000000000000e+00 -2.902854358204e-01 9.569401056234e-01 0.000000000000e+00 -2.902853924914e-01 9.569401187672e-01 0.000000000000e+00 -2.902853361277e-01 9.569401358649e-01 0.000000000000e+00 -2.902852621701e-01 9.569401582998e-01 0.000000000000e+00 -2.902851548384e-01 9.569401908586e-01 0.000000000000e+00 -2.902849543394e-01 9.569402516794e-01 0.000000000000e+00 -2.902844454683e-01 9.569404060437e-01 0.000000000000e+00 -2.902828720831e-01 9.569408833231e-01 0.000000000000e+00 -2.902776176990e-01 9.569424771965e-01 0.000000000000e+00 -2.902597188597e-01 9.569479064231e-01 0.000000000000e+00 -2.901987681512e-01 9.569663917628e-01 0.000000000000e+00 -2.899716470128e-01 9.570352365136e-01 0.000000000000e+00 -3.824282611677e-01 9.239851866022e-01 0.000000000000e+00 -3.826357318235e-01 9.238992892799e-01 0.000000000000e+00 -3.826720150859e-01 9.238842616205e-01 0.000000000000e+00 -3.826803184761e-01 9.238808223202e-01 0.000000000000e+00 -3.826823909397e-01 9.238799638831e-01 0.000000000000e+00 -3.826830346984e-01 9.238796972301e-01 0.000000000000e+00 -3.826833286538e-01 9.238795754699e-01 0.000000000000e+00 -3.826835209441e-01 9.238794958207e-01 0.000000000000e+00 -3.826836714956e-01 9.238794334601e-01 0.000000000000e+00 -3.826837964248e-01 9.238793817127e-01 0.000000000000e+00 -3.826839009915e-01 9.238793383997e-01 0.000000000000e+00 -3.826839874230e-01 9.238793025986e-01 0.000000000000e+00 -3.826840573488e-01 9.238792736343e-01 0.000000000000e+00 -3.826841114527e-01 9.238792512237e-01 0.000000000000e+00 -3.826841499749e-01 9.238792352672e-01 0.000000000000e+00 -3.826841729547e-01 9.238792257487e-01 0.000000000000e+00 -3.826841812612e-01 9.238792223080e-01 0.000000000000e+00 -3.826841755973e-01 9.238792246541e-01 0.000000000000e+00 -3.826841562795e-01 9.238792326558e-01 0.000000000000e+00 -3.826841227765e-01 9.238792465332e-01 0.000000000000e+00 -3.826840752227e-01 9.238792662307e-01 0.000000000000e+00 -3.826840130776e-01 9.238792919721e-01 0.000000000000e+00 -3.826839315417e-01 9.238793257454e-01 0.000000000000e+00 -3.826838088575e-01 9.238793765630e-01 0.000000000000e+00 -3.826835656663e-01 9.238794772961e-01 0.000000000000e+00 -3.826829184866e-01 9.238797453666e-01 0.000000000000e+00 -3.826808724167e-01 9.238805928725e-01 0.000000000000e+00 -3.826739803559e-01 9.238834476051e-01 0.000000000000e+00 -3.826504323129e-01 9.238932008900e-01 0.000000000000e+00 -3.825701536386e-01 9.239264459604e-01 0.000000000000e+00 -3.822708090026e-01 9.240503387719e-01 0.000000000000e+00 -4.710825283656e-01 8.820891403190e-01 0.000000000000e+00 -4.713379464781e-01 8.819526859247e-01 0.000000000000e+00 -4.713825535485e-01 8.819288453215e-01 0.000000000000e+00 -4.713927305488e-01 8.819234057364e-01 0.000000000000e+00 -4.713952441320e-01 8.819220622083e-01 0.000000000000e+00 -4.713960024791e-01 8.819216568646e-01 0.000000000000e+00 -4.713963327191e-01 8.819214803479e-01 0.000000000000e+00 -4.713965405939e-01 8.819213692366e-01 0.000000000000e+00 -4.713966999328e-01 8.819212840682e-01 0.000000000000e+00 -4.713968306239e-01 8.819212142123e-01 0.000000000000e+00 -4.713969392580e-01 8.819211561462e-01 0.000000000000e+00 -4.713970289861e-01 8.819211081854e-01 0.000000000000e+00 -4.713971013118e-01 8.819210695265e-01 0.000000000000e+00 -4.713971571769e-01 8.819210396660e-01 0.000000000000e+00 -4.713971970225e-01 8.819210183680e-01 0.000000000000e+00 -4.713972215768e-01 8.819210052435e-01 0.000000000000e+00 -4.713972315026e-01 8.819209999380e-01 0.000000000000e+00 -4.713972274544e-01 8.819210021019e-01 0.000000000000e+00 -4.713972093889e-01 8.819210117581e-01 0.000000000000e+00 -4.713971776172e-01 8.819210287404e-01 0.000000000000e+00 -4.713971325236e-01 8.819210528435e-01 0.000000000000e+00 -4.713970731373e-01 8.819210845861e-01 0.000000000000e+00 -4.713969925718e-01 8.819211276493e-01 0.000000000000e+00 -4.713968644199e-01 8.819211961480e-01 0.000000000000e+00 -4.713965914940e-01 8.819213420299e-01 0.000000000000e+00 -4.713958252009e-01 8.819217516215e-01 0.000000000000e+00 -4.713933410680e-01 8.819230794104e-01 0.000000000000e+00 -4.713848976095e-01 8.819275924393e-01 0.000000000000e+00 -4.713559588062e-01 8.819430594420e-01 0.000000000000e+00 -4.712571795791e-01 8.819958450555e-01 0.000000000000e+00 -4.708885398813e-01 8.821927130783e-01 0.000000000000e+00 -5.552001138438e-01 8.317167989093e-01 0.000000000000e+00 -5.555009218242e-01 8.315159203843e-01 0.000000000000e+00 -5.555533752036e-01 8.314808760879e-01 0.000000000000e+00 -5.555653091975e-01 8.314729022742e-01 0.000000000000e+00 -5.555682292553e-01 8.314709511715e-01 0.000000000000e+00 -5.555690859412e-01 8.314703787547e-01 0.000000000000e+00 -5.555694408760e-01 8.314701415954e-01 0.000000000000e+00 -5.555696545558e-01 8.314699988194e-01 0.000000000000e+00 -5.555698142813e-01 8.314698920944e-01 0.000000000000e+00 -5.555699431360e-01 8.314698059965e-01 0.000000000000e+00 -5.555700491055e-01 8.314697351900e-01 0.000000000000e+00 -5.555701359492e-01 8.314696771629e-01 0.000000000000e+00 -5.555702058183e-01 8.314696304779e-01 0.000000000000e+00 -5.555702596193e-01 8.314695945292e-01 0.000000000000e+00 -5.555702984603e-01 8.314695685765e-01 0.000000000000e+00 -5.555703232891e-01 8.314695519864e-01 0.000000000000e+00 -5.555703347870e-01 8.314695443038e-01 0.000000000000e+00 -5.555703328229e-01 8.314695456161e-01 0.000000000000e+00 -5.555703179289e-01 8.314695555679e-01 0.000000000000e+00 -5.555702910023e-01 8.314695735598e-01 0.000000000000e+00 -5.555702524760e-01 8.314695993022e-01 0.000000000000e+00 -5.555702003717e-01 8.314696341172e-01 0.000000000000e+00 -5.555701267079e-01 8.314696833377e-01 0.000000000000e+00 -5.555700005900e-01 8.314697676070e-01 0.000000000000e+00 -5.555697074576e-01 8.314699634716e-01 0.000000000000e+00 -5.555688367236e-01 8.314705452760e-01 0.000000000000e+00 -5.555659478377e-01 8.314724755536e-01 0.000000000000e+00 -5.555560500368e-01 8.314790888937e-01 0.000000000000e+00 -5.555220302979e-01 8.315018183105e-01 0.000000000000e+00 -5.554057638334e-01 8.315794835736e-01 0.000000000000e+00 -5.549714250904e-01 8.318694112258e-01 0.000000000000e+00 -6.339709709636e-01 7.733568438796e-01 0.000000000000e+00 -6.343141426362e-01 7.730753963565e-01 0.000000000000e+00 -6.343738827002e-01 7.730263753249e-01 0.000000000000e+00 -6.343874451525e-01 7.730152452784e-01 0.000000000000e+00 -6.343907403551e-01 7.730125410055e-01 0.000000000000e+00 -6.343916868768e-01 7.730117642194e-01 0.000000000000e+00 -6.343920630419e-01 7.730114555099e-01 0.000000000000e+00 -6.343922792872e-01 7.730112780424e-01 0.000000000000e+00 -6.343924353823e-01 7.730111499388e-01 0.000000000000e+00 -6.343925590299e-01 7.730110484641e-01 0.000000000000e+00 -6.343926597980e-01 7.730109657660e-01 0.000000000000e+00 -6.343927419267e-01 7.730108983648e-01 0.000000000000e+00 -6.343928072709e-01 7.730108447383e-01 0.000000000000e+00 -6.343928576915e-01 7.730108033592e-01 0.000000000000e+00 -6.343928945419e-01 7.730107731168e-01 0.000000000000e+00 -6.343929188470e-01 7.730107531702e-01 0.000000000000e+00 -6.343929308746e-01 7.730107432994e-01 0.000000000000e+00 -6.343929314480e-01 7.730107428288e-01 0.000000000000e+00 -6.343929210375e-01 7.730107513725e-01 0.000000000000e+00 -6.343929001328e-01 7.730107685286e-01 0.000000000000e+00 -6.343928683894e-01 7.730107945796e-01 0.000000000000e+00 -6.343928244159e-01 7.730108306677e-01 0.000000000000e+00 -6.343927593322e-01 7.730108840805e-01 0.000000000000e+00 -6.343926373414e-01 7.730109841956e-01 0.000000000000e+00 -6.343923263617e-01 7.730112394095e-01 0.000000000000e+00 -6.343913587258e-01 7.730120335247e-01 0.000000000000e+00 -6.343880941279e-01 7.730147126858e-01 0.000000000000e+00 -6.343768460109e-01 7.730239435136e-01 0.000000000000e+00 -6.343381024506e-01 7.730557365283e-01 0.000000000000e+00 -6.342055437330e-01 7.731644898069e-01 0.000000000000e+00 -6.337097361393e-01 7.735709213267e-01 0.000000000000e+00 -7.066365792418e-01 7.075766706707e-01 0.000000000000e+00 -7.070186206617e-01 7.071949307211e-01 0.000000000000e+00 -7.070850007165e-01 7.071285609857e-01 0.000000000000e+00 -7.071000537403e-01 7.071135085688e-01 0.000000000000e+00 -7.071037002499e-01 7.071098621098e-01 0.000000000000e+00 -7.071047364844e-01 7.071088258827e-01 0.000000000000e+00 -7.071051377193e-01 7.071084246500e-01 0.000000000000e+00 -7.071053605839e-01 7.071082017864e-01 0.000000000000e+00 -7.071055171532e-01 7.071080452176e-01 0.000000000000e+00 -7.071056385716e-01 7.071079237996e-01 0.000000000000e+00 -7.071057358584e-01 7.071078265131e-01 0.000000000000e+00 -7.071058139582e-01 7.071077484136e-01 0.000000000000e+00 -7.071058761781e-01 7.071076861939e-01 0.000000000000e+00 -7.071059242397e-01 7.071076381324e-01 0.000000000000e+00 -7.071059596096e-01 7.071076027625e-01 0.000000000000e+00 -7.071059831388e-01 7.071075792334e-01 0.000000000000e+00 -7.071059960950e-01 7.071075662772e-01 0.000000000000e+00 -7.071059986446e-01 7.071075637277e-01 0.000000000000e+00 -7.071059913894e-01 7.071075709828e-01 0.000000000000e+00 -7.071059744564e-01 7.071075879157e-01 0.000000000000e+00 -7.071059481858e-01 7.071076141863e-01 0.000000000000e+00 -7.071059098502e-01 7.071076525218e-01 0.000000000000e+00 -7.071058486869e-01 7.071077136850e-01 0.000000000000e+00 -7.071057239513e-01 7.071078384203e-01 0.000000000000e+00 -7.071053898304e-01 7.071081725400e-01 0.000000000000e+00 -7.071043260323e-01 7.071092363323e-01 0.000000000000e+00 -7.071007094995e-01 7.071128528214e-01 0.000000000000e+00 -7.070882192534e-01 7.071253426324e-01 0.000000000000e+00 -7.070451559652e-01 7.071684010377e-01 0.000000000000e+00 -7.068976836087e-01 7.073158169507e-01 0.000000000000e+00 -7.063452394226e-01 7.078675036651e-01 0.000000000000e+00 7.724972821883e-01 -6.350180698309e-01 0.000000000000e+00 7.729142068106e-01 -6.345105427890e-01 0.000000000000e+00 7.729864798516e-01 -6.344224948460e-01 0.000000000000e+00 7.730028738700e-01 -6.344025196898e-01 0.000000000000e+00 7.730068537083e-01 -6.343976703299e-01 0.000000000000e+00 7.730079890757e-01 -6.343962868943e-01 0.000000000000e+00 7.730084285841e-01 -6.343957513556e-01 0.000000000000e+00 7.730086700877e-01 -6.343954570843e-01 0.000000000000e+00 7.730088368033e-01 -6.343952539419e-01 0.000000000000e+00 7.730089638160e-01 -6.343950991772e-01 0.000000000000e+00 7.730090637198e-01 -6.343949774446e-01 0.000000000000e+00 7.730091430583e-01 -6.343948807708e-01 0.000000000000e+00 7.730092057675e-01 -6.343948043598e-01 0.000000000000e+00 7.730092543495e-01 -6.343947451627e-01 0.000000000000e+00 7.730092900202e-01 -6.343947016980e-01 0.000000000000e+00 7.730093139999e-01 -6.343946724787e-01 0.000000000000e+00 7.730093273102e-01 -6.343946562602e-01 0.000000000000e+00 7.730093309190e-01 -6.343946518628e-01 0.000000000000e+00 7.730093247100e-01 -6.343946594285e-01 0.000000000000e+00 7.730093086165e-01 -6.343946790384e-01 0.000000000000e+00 7.730092817467e-01 -6.343947117792e-01 0.000000000000e+00 7.730092410378e-01 -6.343947613830e-01 0.000000000000e+00 7.730091736701e-01 -6.343948434704e-01 0.000000000000e+00 7.730090347718e-01 -6.343950127178e-01 0.000000000000e+00 7.730086636184e-01 -6.343954649671e-01 0.000000000000e+00 7.730074937358e-01 -6.343968904623e-01 0.000000000000e+00 7.730035406241e-01 -6.344017072665e-01 0.000000000000e+00 7.729899234731e-01 -6.344182990812e-01 0.000000000000e+00 7.729429973692e-01 -6.344754706196e-01 0.000000000000e+00 7.727821918894e-01 -6.346713195810e-01 0.000000000000e+00 7.721785238520e-01 -6.354056399670e-01 0.000000000000e+00 8.309191050102e-01 -5.563932430655e-01 0.000000000000e+00 8.313663380925e-01 -5.557247627078e-01 0.000000000000e+00 8.314436190004e-01 -5.556091327755e-01 0.000000000000e+00 8.314611928954e-01 -5.555828333462e-01 0.000000000000e+00 8.314654954299e-01 -5.555763943055e-01 0.000000000000e+00 8.314667467786e-01 -5.555745215553e-01 0.000000000000e+00 8.314672452296e-01 -5.555737755783e-01 0.000000000000e+00 8.314675243152e-01 -5.555733579008e-01 0.000000000000e+00 8.314677166803e-01 -5.555730700083e-01 0.000000000000e+00 8.314678614237e-01 -5.555728533860e-01 0.000000000000e+00 8.314679743411e-01 -5.555726843943e-01 0.000000000000e+00 8.314680633730e-01 -5.555725511495e-01 0.000000000000e+00 8.314681328761e-01 -5.555724471313e-01 0.000000000000e+00 8.314681858262e-01 -5.555723678865e-01 0.000000000000e+00 8.314682249788e-01 -5.555723092907e-01 0.000000000000e+00 8.314682519941e-01 -5.555722688597e-01 0.000000000000e+00 8.314682673250e-01 -5.555722459155e-01 0.000000000000e+00 8.314682706810e-01 -5.555722408929e-01 0.000000000000e+00 8.314682621336e-01 -5.555722536849e-01 0.000000000000e+00 8.314682411217e-01 -5.555722851313e-01 0.000000000000e+00 8.314682056589e-01 -5.555723382049e-01 0.000000000000e+00 8.314681504827e-01 -5.555724207814e-01 0.000000000000e+00 8.314680611966e-01 -5.555725544066e-01 0.000000000000e+00 8.314678881824e-01 -5.555728133392e-01 0.000000000000e+00 8.314674581764e-01 -5.555734568837e-01 0.000000000000e+00 8.314661630044e-01 -5.555753952243e-01 0.000000000000e+00 8.314618796070e-01 -5.555818056420e-01 0.000000000000e+00 8.314472509174e-01 -5.556036977395e-01 0.000000000000e+00 8.313969831296e-01 -5.556789148807e-01 0.000000000000e+00 8.312246873802e-01 -5.559366142733e-01 0.000000000000e+00 8.305757980577e-01 -5.569055967404e-01 0.000000000000e+00 8.813400702500e-01 -4.724824658882e-01 0.000000000000e+00 8.818121682485e-01 -4.716007844871e-01 0.000000000000e+00 8.818933190996e-01 -4.714490149820e-01 0.000000000000e+00 8.819119126727e-01 -4.714142321631e-01 0.000000000000e+00 8.819165558980e-01 -4.714055456112e-01 0.000000000000e+00 8.819179516610e-01 -4.714029343758e-01 0.000000000000e+00 8.819185322448e-01 -4.714018481967e-01 0.000000000000e+00 8.819188710792e-01 -4.714012142903e-01 0.000000000000e+00 8.819191113531e-01 -4.714007647746e-01 0.000000000000e+00 8.819192942847e-01 -4.714004225374e-01 0.000000000000e+00 8.819194362711e-01 -4.714001569021e-01 0.000000000000e+00 8.819195469806e-01 -4.713999497809e-01 0.000000000000e+00 8.819196330788e-01 -4.713997887039e-01 0.000000000000e+00 8.819196990945e-01 -4.713996651984e-01 0.000000000000e+00 8.819197479079e-01 -4.713995738756e-01 0.000000000000e+00 8.819197812523e-01 -4.713995114930e-01 0.000000000000e+00 8.819197996151e-01 -4.713994771390e-01 0.000000000000e+00 8.819198023118e-01 -4.713994720938e-01 0.000000000000e+00 8.819197877053e-01 -4.713994994204e-01 0.000000000000e+00 8.819197537142e-01 -4.713995630128e-01 0.000000000000e+00 8.819196971766e-01 -4.713996687864e-01 0.000000000000e+00 8.819196119825e-01 -4.713998281720e-01 0.000000000000e+00 8.819194815742e-01 -4.714000721467e-01 0.000000000000e+00 8.819192517612e-01 -4.714005020923e-01 0.000000000000e+00 8.819187339191e-01 -4.714014708956e-01 0.000000000000e+00 8.819172751147e-01 -4.714042000814e-01 0.000000000000e+00 8.819126291725e-01 -4.714128917479e-01 0.000000000000e+00 8.818970792809e-01 -4.714419811131e-01 0.000000000000e+00 8.818440985894e-01 -4.715410753934e-01 0.000000000000e+00 8.816626023070e-01 -4.718803404395e-01 0.000000000000e+00 8.809751571491e-01 -4.731625222755e-01 0.000000000000e+00 9.232762279580e-01 -3.841367033853e-01 0.000000000000e+00 9.237661258704e-01 -3.829571055541e-01 0.000000000000e+00 9.238492995805e-01 -3.827564129635e-01 0.000000000000e+00 9.238687535484e-01 -3.827094540469e-01 0.000000000000e+00 9.238739358314e-01 -3.826969436662e-01 0.000000000000e+00 9.238756195470e-01 -3.826928789599e-01 0.000000000000e+00 9.238763353342e-01 -3.826911509422e-01 0.000000000000e+00 9.238767449298e-01 -3.826901621127e-01 0.000000000000e+00 9.238770388316e-01 -3.826894525850e-01 0.000000000000e+00 9.238772738389e-01 -3.826888852370e-01 0.000000000000e+00 9.238774665912e-01 -3.826884198993e-01 0.000000000000e+00 9.238776228800e-01 -3.826880425903e-01 0.000000000000e+00 9.238777465499e-01 -3.826877440288e-01 0.000000000000e+00 9.238778406941e-01 -3.826875167476e-01 0.000000000000e+00 9.238779073244e-01 -3.826873558896e-01 0.000000000000e+00 9.238779479017e-01 -3.826872579287e-01 0.000000000000e+00 9.238779637192e-01 -3.826872197422e-01 0.000000000000e+00 9.238779553501e-01 -3.826872399469e-01 0.000000000000e+00 9.238779226493e-01 -3.826873188926e-01 0.000000000000e+00 9.238778654131e-01 -3.826874570714e-01 0.000000000000e+00 9.238777826351e-01 -3.826876569125e-01 0.000000000000e+00 9.238776672841e-01 -3.826879353908e-01 0.000000000000e+00 9.238774926717e-01 -3.826883569364e-01 0.000000000000e+00 9.238771767994e-01 -3.826891195071e-01 0.000000000000e+00 9.238764794951e-01 -3.826908029151e-01 0.000000000000e+00 9.238746770492e-01 -3.826951542771e-01 0.000000000000e+00 9.238694586615e-01 -3.827077518845e-01 0.000000000000e+00 9.238530375377e-01 -3.827473906279e-01 0.000000000000e+00 9.237983789903e-01 -3.828792955683e-01 0.000000000000e+00 9.236109721302e-01 -3.833311520876e-01 0.000000000000e+00 9.228924461411e-01 -3.850578305341e-01 0.000000000000e+00 9.563281856385e-01 -2.922950587223e-01 0.000000000000e+00 9.568257566226e-01 -2.906621259530e-01 0.000000000000e+00 9.569065407174e-01 -2.903960611515e-01 0.000000000000e+00 9.569258002229e-01 -2.903325900889e-01 0.000000000000e+00 9.569321314242e-01 -2.903117218577e-01 0.000000000000e+00 9.569350213916e-01 -2.903021957104e-01 0.000000000000e+00 9.569365324436e-01 -2.902972147212e-01 0.000000000000e+00 9.569373329140e-01 -2.902945760352e-01 0.000000000000e+00 9.569377573979e-01 -2.902931767478e-01 0.000000000000e+00 9.569379948101e-01 -2.902923941285e-01 0.000000000000e+00 9.569381446839e-01 -2.902919000747e-01 0.000000000000e+00 9.569382524370e-01 -2.902915448697e-01 0.000000000000e+00 9.569383347258e-01 -2.902912736067e-01 0.000000000000e+00 9.569383957694e-01 -2.902910723779e-01 0.000000000000e+00 9.569384363532e-01 -2.902909385940e-01 0.000000000000e+00 9.569384579433e-01 -2.902908674230e-01 0.000000000000e+00 9.569384636673e-01 -2.902908485538e-01 0.000000000000e+00 9.569384570509e-01 -2.902908703645e-01 0.000000000000e+00 9.569384383145e-01 -2.902909321287e-01 0.000000000000e+00 9.569383976046e-01 -2.902910663282e-01 0.000000000000e+00 9.569383048363e-01 -2.902913721366e-01 0.000000000000e+00 9.569380962732e-01 -2.902920596591e-01 0.000000000000e+00 9.569376582145e-01 -2.902935037010e-01 0.000000000000e+00 9.569368064090e-01 -2.902963116191e-01 0.000000000000e+00 9.569352382462e-01 -2.903014808828e-01 0.000000000000e+00 9.569323262932e-01 -2.903110795252e-01 0.000000000000e+00 9.569261822530e-01 -2.903313309284e-01 0.000000000000e+00 9.569098107839e-01 -2.903852854839e-01 0.000000000000e+00 9.568566014289e-01 -2.905605690761e-01 0.000000000000e+00 9.566687047949e-01 -2.911786208947e-01 0.000000000000e+00 9.559270363476e-01 -2.936043275903e-01 0.000000000000e+00 9.801877154279e-01 -1.980708017963e-01 0.000000000000e+00 9.806836119909e-01 -1.956007494169e-01 0.000000000000e+00 9.807528076824e-01 -1.952535024606e-01 0.000000000000e+00 9.807633030923e-01 -1.952007769133e-01 0.000000000000e+00 9.807669709339e-01 -1.951823473705e-01 0.000000000000e+00 9.807711928506e-01 -1.951611315667e-01 0.000000000000e+00 9.807756018385e-01 -1.951389731403e-01 0.000000000000e+00 9.807793527311e-01 -1.951201200708e-01 0.000000000000e+00 9.807821047929e-01 -1.951062862083e-01 0.000000000000e+00 9.807838845888e-01 -1.950973391179e-01 0.000000000000e+00 9.807848786649e-01 -1.950923416805e-01 0.000000000000e+00 9.807853077931e-01 -1.950901843181e-01 0.000000000000e+00 9.807853676943e-01 -1.950898831737e-01 0.000000000000e+00 9.807852068162e-01 -1.950906919626e-01 0.000000000000e+00 9.807849213241e-01 -1.950921272201e-01 0.000000000000e+00 9.807845566075e-01 -1.950939607476e-01 0.000000000000e+00 9.807841105228e-01 -1.950962033103e-01 0.000000000000e+00 9.807835372076e-01 -1.950990854479e-01 0.000000000000e+00 9.807827522856e-01 -1.951030312916e-01 0.000000000000e+00 9.807816420352e-01 -1.951086124361e-01 0.000000000000e+00 9.807800818605e-01 -1.951164550356e-01 0.000000000000e+00 9.807779726074e-01 -1.951270571911e-01 0.000000000000e+00 9.807753043350e-01 -1.951404683980e-01 0.000000000000e+00 9.807722497333e-01 -1.951558201877e-01 0.000000000000e+00 9.807692461178e-01 -1.951709145073e-01 0.000000000000e+00 9.807668559635e-01 -1.951829250816e-01 0.000000000000e+00 9.807646209273e-01 -1.951941554898e-01 0.000000000000e+00 9.807562790518e-01 -1.952360650608e-01 0.000000000000e+00 9.807129301200e-01 -1.954536996206e-01 0.000000000000e+00 9.805275073040e-01 -1.963817899406e-01 0.000000000000e+00 9.797653315058e-01 -2.001496819367e-01 0.000000000000e+00 9.944565847348e-01 -1.051479960701e-01 0.000000000000e+00 9.951175312845e-01 -9.869700567973e-02 0.000000000000e+00 9.952511151811e-01 -9.734073007142e-02 0.000000000000e+00 9.952648827818e-01 -9.719986163190e-02 0.000000000000e+00 9.952483850755e-01 -9.736863973859e-02 0.000000000000e+00 9.952275663599e-01 -9.758120288918e-02 0.000000000000e+00 9.952095206783e-01 -9.776507531500e-02 0.000000000000e+00 9.951955684276e-01 -9.790699965799e-02 0.000000000000e+00 9.951853384401e-01 -9.801092874734e-02 0.000000000000e+00 9.951780796052e-01 -9.808460568960e-02 0.000000000000e+00 9.951730720145e-01 -9.813540002040e-02 0.000000000000e+00 9.951697374213e-01 -9.816920963740e-02 0.000000000000e+00 9.951676511659e-01 -9.819035631304e-02 0.000000000000e+00 9.951665259598e-01 -9.820175970439e-02 0.000000000000e+00 9.951661921132e-01 -9.820514281257e-02 0.000000000000e+00 9.951665823046e-01 -9.820118871027e-02 0.000000000000e+00 9.951677229849e-01 -9.818962841852e-02 0.000000000000e+00 9.951697320944e-01 -9.816926363769e-02 0.000000000000e+00 9.951728219906e-01 -9.813793543375e-02 0.000000000000e+00 9.951773050960e-01 -9.809246363484e-02 0.000000000000e+00 9.951835966511e-01 -9.802861294823e-02 0.000000000000e+00 9.951922022206e-01 -9.794121011746e-02 0.000000000000e+00 9.952036621933e-01 -9.782469400385e-02 0.000000000000e+00 9.952183881990e-01 -9.767476537282e-02 0.000000000000e+00 9.952362362263e-01 -9.749273871439e-02 0.000000000000e+00 9.952554339669e-01 -9.729656293710e-02 0.000000000000e+00 9.952698851784e-01 -9.714862663492e-02 0.000000000000e+00 9.952622383586e-01 -9.722693504107e-02 0.000000000000e+00 9.951852803526e-01 -9.801151855525e-02 0.000000000000e+00 0.000000000000e+00 0.000000000000e+00 1.000000000000e+00 0.000000000000e+00 0.000000000000e+00 1.000000000000e+00 9.999715009767e-01 7.549651279288e-03 0.000000000000e+00 9.999961183411e-01 -2.786270390187e-03 0.000000000000e+00 9.999893780221e-01 -4.609104358023e-03 0.000000000000e+00 9.999900185239e-01 -4.467980820837e-03 0.000000000000e+00 9.999926127935e-01 -3.843742774707e-03 0.000000000000e+00 9.999949589533e-01 -3.175227221195e-03 0.000000000000e+00 0.000000000000e+00 0.000000000000e+00 1.000000000000e+00 0.000000000000e+00 0.000000000000e+00 1.000000000000e+00 0.000000000000e+00 0.000000000000e+00 1.000000000000e+00 0.000000000000e+00 0.000000000000e+00 1.000000000000e+00 0.000000000000e+00 0.000000000000e+00 1.000000000000e+00 0.000000000000e+00 0.000000000000e+00 1.000000000000e+00 0.000000000000e+00 0.000000000000e+00 1.000000000000e+00 0.000000000000e+00 0.000000000000e+00 1.000000000000e+00 0.000000000000e+00 0.000000000000e+00 1.000000000000e+00 0.000000000000e+00 0.000000000000e+00 1.000000000000e+00 0.000000000000e+00 0.000000000000e+00 1.000000000000e+00 0.000000000000e+00 0.000000000000e+00 1.000000000000e+00 0.000000000000e+00 0.000000000000e+00 1.000000000000e+00 0.000000000000e+00 0.000000000000e+00 1.000000000000e+00 0.000000000000e+00 0.000000000000e+00 1.000000000000e+00 0.000000000000e+00 0.000000000000e+00 1.000000000000e+00 0.000000000000e+00 0.000000000000e+00 1.000000000000e+00 0.000000000000e+00 0.000000000000e+00 1.000000000000e+00 9.999964983243e-01 -2.646382270606e-03 0.000000000000e+00 9.999949545107e-01 -3.176626064455e-03 0.000000000000e+00 9.999931223861e-01 -3.708797706527e-03 0.000000000000e+00 9.999917594644e-01 -4.059680198132e-03 0.000000000000e+00 9.999930050402e-01 -3.740303564019e-03 0.000000000000e+00 9.999988845738e-01 -1.493603442864e-03 0.000000000000e+00 9.999808567222e-01 6.187583465854e-03 0.000000000000e+00 
        </DataArray>
      </PointData>
      <CellData>
        <DataArray type="Int32" Name="MatGroup" format="ascii">
          0 0 0 0 0 0 0 0 0 0 0 0 0 0 0 0 0 0 0 0 0 0 0 0 0 0 0 0 0 0 0 0 0 0 0 0 0 0 0 0 0 0 0 0 0 0 0 0 0 0 0 0 0 0 0 0 0 0 0 0 0 0 0 0 0 0 0 0 0 0 0 0 0 0 0 0 0 0 0 0 0 0 0 0 0 0 0 0 0 0 0 0 0 0 0 0 0 0 0 0 0 0 0 0 0 0 0 0 0 0 0 0 0 0 0 0 0 0 0 0 0 0 0 0 0 0 0 0 0 0 0 0 0 0 0 0 0 0 0 0 0 0 0 0 0 0 0 0 0 0 0 0 0 0 0 0 0 0 0 0 0 0 0 0 0 0 0 0 0 0 0 0 0 0 0 0 0 0 0 0 0 0 0 0 0 0 0 0 0 0 0 0 0 0 0 0 0 0 0 0 0 0 0 0 0 0 0 0 0 0 0 0 0 0 0 0 0 0 0 0 0 0 0 0 0 0 0 0 0 0 0 0 0 0 0 0 0 0 0 0 0 0 0 0 0 0 0 0 0 0 0 0 0 0 0 0 0 0 0 0 0 0 0 0 0 0 0 0 0 0 0 0 0 0 0 0 0 0 0 0 0 0 0 0 0 0 0 0 0 0 0 0 0 0 0 0 0 0 0 0 0 0 0 0 0 0 0 0 0 0 0 0 0 0 0 0 0 0 0 0 0 0 0 0 0 0 0 0 0 0 0 0 0 0 0 0 0 0 0 0 0 0 0 0 0 0 0 0 0 0 0 0 0 0 0 0 0 0 0 0 0 0 0 0 0 0 0 0 0 0 0 0 0 0 0 0 0 0 0 0 0 0 0 0 0 0 0 0 0 0 0 0 0 0 0 0 0 0 0 0 0 0 0 0 0 0 0 0 0 0 0 0 0 0 0 0 0 0 0 0 0 0 0 0 0 0 0 0 0 0 0 0 0 0 0 0 0 0 0 0 0 0 0 0 0 0 0 0 0 0 0 0 0 0 0 0 0 0 0 0 0 0 0 0 0 0 0 0 0 0 0 0 0 0 0 0 0 0 0 0 
        </DataArray>
      </CellData>
    </Piece>
  </UnstructuredGrid>
</VTKFile>
