<?xml version="1.0"?>
<!-- Time step: 1 | Time: 1.000000000000e+00 -->
<VTKFile type="UnstructuredGrid" version="0.1" byte_order="LittleEndian">
  <UnstructuredGrid>
    <Piece NumberOfPoints="527" NumberOfCells="480">
      <Points>
        <DataArray type="Float64" NumberOfComponents="3" format="ascii">
          1.000000000000e-03 0.000000000000e+00 0.000000000000e+00
          1.033333333333e-03 0.000000000000e+00 0.000000000000e+00
          1.066666666667e-03 0.000000000000e+00 0.000000000000e+00
          1.100000000000e-03 0.000000000000e+00 0.000000000000e+00
          1.133333333333e-03 0.000000000000e+00 0.000000000000e+00
          1.166666666667e-03 0.000000000000e+00 0.000000000000e+00
          1.200000000000e-03 0.000000000000e+00 0.000000000000e+00
          1.233333333333e-03 0.000000000000e+00 0.000000000000e+00
          1.266666666667e-03 0.000000000000e+00 0.000000000000e+00
          1.300000000000e-03 0.000000000000e+00 0.000000000000e+00
          1.333333333333e-03 0.000000000000e+00 0.000000000000e+00
          1.366666666667e-03 0.000000000000e+00 0.000000000000e+00
          1.400000000000e-03 0.000000000000e+00 0.000000000000e+00
          1.433333333333e-03 0.000000000000e+00 0.000000000000e+00
          1.466666666667e-03 0.000000000000e+00 0.000000000000e+00
          1.500000000000e-03 0.000000000000e+00 0.000000000000e+00
          1.533333333333e-03 0.000000000000e+00 0.000000000000e+00
          1.566666666667e-03 0.000000000000e+00 0.000000000000e+00
          1.600000000000e-03 0.000000000000e+00 0.000000000000e+00
          1.633333333333e-03 0.000000000000e+00 0.000000000000e+00
          1.666666666667e-03 0.000000000000e+00 0.000000000000e+00
          1.700000000000e-03 0.000000000000e+00 0.000000000000e+00
          1.733333333333e-03 0.000000000000e+00 0.000000000000e+00
          1.766666666667e-03 0.000000000000e+00 0.000000000000e+00
          1.800000000000e-03 0.000000000000e+00 0.000000000000e+00
          1.833333333333e-03 0.000000000000e+00 0.000000000000e+00
          1.866666666667e-03 0.000000000000e+00 0.000000000000e+00
          1.900000000000e-03 0.000000000000e+00 0.000000000000e+00
          1.933333333333e-03 0.000000000000e+00 0.000000000000e+00
          1.966666666667e-03 0.000000000000e+00 0.000000000000e+00
          2.000000000000e-03 0.000000000000e+00 0.000000000000e+00
          9.951847265300e-04 9.801714177290e-05 0.000000000000e+00
          1.028357550748e-03 1.012843798320e-04 0.000000000000e+00
          1.061530374965e-03 1.045516178911e-04 0.000000000000e+00
          1.094703199183e-03 1.078188559502e-04 0.000000000000e+00
          1.127876023401e-03 1.110860940093e-04 0.000000000000e+00
          1.161048847618e-03 1.143533320684e-04 0.000000000000e+00
          1.194221671836e-03 1.176205701275e-04 0.000000000000e+00
          1.227394496054e-03 1.208878081866e-04 0.000000000000e+00
          1.260567320271e-03 1.241550462457e-04 0.000000000000e+00
          1.293740144489e-03 1.274222843048e-04 0.000000000000e+00
          1.326912968707e-03 1.306895223639e-04 0.000000000000e+00
          1.360085792924e-03 1.339567604230e-04 0.000000000000e+00
          1.393258617142e-03 1.372239984821e-04 0.000000000000e+00
          1.426431441360e-03 1.404912365412e-04 0.000000000000e+00
          1.459604265577e-03 1.437584746002e-04 0.000000000000e+00
          1.492777089795e-03 1.470257126593e-04 0.000000000000e+00
          1.525949914013e-03 1.502929507184e-04 0.000000000000e+00
          1.559122738230e-03 1.535601887775e-04 0.000000000000e+00
          1.592295562448e-03 1.568274268366e-04 0.000000000000e+00
          1.625468386666e-03 1.600946648957e-04 0.000000000000e+00
          1.658641210883e-03 1.633619029548e-04 0.000000000000e+00
          1.691814035101e-03 1.666291410139e-04 0.000000000000e+00
          1.724986859319e-03 1.698963790730e-04 0.000000000000e+00
          1.758159683536e-03 1.731636171321e-04 0.000000000000e+00
          1.791332507754e-03 1.764308551912e-04 0.000000000000e+00
          1.824505331972e-03 1.796980932503e-04 0.000000000000e+00
          1.857678156189e-03 1.829653313094e-04 0.000000000000e+00
          1.890850980407e-03 1.862325693685e-04 0.000000000000e+00
          1.924023804625e-03 1.894998074276e-04 0.000000000000e+00
          1.957196628842e-03 1.927670454867e-04 0.000000000000e+00
          1.990369453060e-03 1.960342835458e-04 0.000000000000e+00
          9.807852798373e-04 1.950903248610e-04 0.000000000000e+00
          1.013478122499e-03 2.015933356897e-04 0.000000000000e+00
          1.046170965160e-03 2.080963465184e-04 0.000000000000e+00
          1.078863807821e-03 2.145993573471e-04 0.000000000000e+00
          1.111556650482e-03 2.211023681758e-04 0.000000000000e+00
          1.144249493144e-03 2.276053790045e-04 0.000000000000e+00
          1.176942335805e-03 2.341083898332e-04 0.000000000000e+00
          1.209635178466e-03 2.406114006619e-04 0.000000000000e+00
          1.242328021127e-03 2.471144114906e-04 0.000000000000e+00
          1.275020863789e-03 2.536174223193e-04 0.000000000000e+00
          1.307713706450e-03 2.601204331480e-04 0.000000000000e+00
          1.340406549111e-03 2.666234439767e-04 0.000000000000e+00
          1.373099391772e-03 2.731264548054e-04 0.000000000000e+00
          1.405792234434e-03 2.796294656341e-04 0.000000000000e+00
          1.438485077095e-03 2.861324764628e-04 0.000000000000e+00
          1.471177919756e-03 2.926354872915e-04 0.000000000000e+00
          1.503870762417e-03 2.991384981202e-04 0.000000000000e+00
          1.536563605079e-03 3.056415089489e-04 0.000000000000e+00
          1.569256447740e-03 3.121445197776e-04 0.000000000000e+00
          1.601949290401e-03 3.186475306064e-04 0.000000000000e+00
          1.634642133062e-03 3.251505414351e-04 0.000000000000e+00
          1.667334975723e-03 3.316535522638e-04 0.000000000000e+00
          1.700027818385e-03 3.381565630925e-04 0.000000000000e+00
          1.732720661046e-03 3.446595739212e-04 0.000000000000e+00
          1.765413503707e-03 3.511625847499e-04 0.000000000000e+00
          1.798106346368e-03 3.576655955786e-04 0.000000000000e+00
          1.830799189030e-03 3.641686064073e-04 0.000000000000e+00
          1.863492031691e-03 3.706716172360e-04 0.000000000000e+00
          1.896184874352e-03 3.771746280647e-04 0.000000000000e+00
          1.928877717013e-03 3.836776388934e-04 0.000000000000e+00
          1.961570559675e-03 3.901806497221e-04 0.000000000000e+00
          9.569403344692e-04 2.902846814181e-04 0.000000000000e+00
          9.888383456182e-04 2.999608374653e-04 0.000000000000e+00
          1.020736356767e-03 3.096369935126e-04 0.000000000000e+00
          1.052634367916e-03 3.193131495599e-04 0.000000000000e+00
          1.084532379065e-03 3.289893056071e-04 0.000000000000e+00
          1.116430390214e-03 3.386654616544e-04 0.000000000000e+00
          1.148328401363e-03 3.483416177017e-04 0.000000000000e+00
          1.180226412512e-03 3.580177737490e-04 0.000000000000e+00
          1.212124423661e-03 3.676939297962e-04 0.000000000000e+00
          1.244022434810e-03 3.773700858435e-04 0.000000000000e+00
          1.275920445959e-03 3.870462418908e-04 0.000000000000e+00
          1.307818457108e-03 3.967223979380e-04 0.000000000000e+00
          1.339716468257e-03 4.063985539853e-04 0.000000000000e+00
          1.371614479406e-03 4.160747100326e-04 0.000000000000e+00
          1.403512490555e-03 4.257508660798e-04 0.000000000000e+00
          1.435410501704e-03 4.354270221271e-04 0.000000000000e+00
          1.467308512853e-03 4.451031781744e-04 0.000000000000e+00
          1.499206524002e-03 4.547793342216e-04 0.000000000000e+00
          1.531104535151e-03 4.644554902689e-04 0.000000000000e+00
          1.563002546300e-03 4.741316463162e-04 0.000000000000e+00
          1.594900557449e-03 4.838078023634e-04 0.000000000000e+00
          1.626798568598e-03 4.934839584107e-04 0.000000000000e+00
          1.658696579747e-03 5.031601144580e-04 0.000000000000e+00
          1.690594590896e-03 5.128362705053e-04 0.000000000000e+00
          1.722492602045e-03 5.225124265525e-04 0.000000000000e+00
          1.754390613194e-03 5.321885825998e-04 0.000000000000e+00
          1.786288624343e-03 5.418647386471e-04 0.000000000000e+00
          1.818186635491e-03 5.515408946943e-04 0.000000000000e+00
          1.850084646640e-03 5.612170507416e-04 0.000000000000e+00
          1.881982657789e-03 5.708932067889e-04 0.000000000000e+00
          1.913880668938e-03 5.805693628361e-04 0.000000000000e+00
          9.238795302912e-04 3.826834377248e-04 0.000000000000e+00
          9.546755146343e-04 3.954395523156e-04 0.000000000000e+00
          9.854714989773e-04 4.081956669064e-04 0.000000000000e+00
          1.016267483320e-03 4.209517814972e-04 0.000000000000e+00
          1.047063467663e-03 4.337078960881e-04 0.000000000000e+00
          1.077859452006e-03 4.464640106789e-04 0.000000000000e+00
          1.108655436349e-03 4.592201252697e-04 0.000000000000e+00
          1.139451420693e-03 4.719762398606e-04 0.000000000000e+00
          1.170247405036e-03 4.847323544514e-04 0.000000000000e+00
          1.201043389379e-03 4.974884690422e-04 0.000000000000e+00
          1.231839373722e-03 5.102445836330e-04 0.000000000000e+00
          1.262635358065e-03 5.230006982239e-04 0.000000000000e+00
          1.293431342408e-03 5.357568128147e-04 0.000000000000e+00
          1.324227326751e-03 5.485129274055e-04 0.000000000000e+00
          1.355023311094e-03 5.612690419963e-04 0.000000000000e+00
          1.385819295437e-03 5.740251565872e-04 0.000000000000e+00
          1.416615279780e-03 5.867812711780e-04 0.000000000000e+00
          1.447411264123e-03 5.995373857688e-04 0.000000000000e+00
          1.478207248466e-03 6.122935003596e-04 0.000000000000e+00
          1.509003232809e-03 6.250496149505e-04 0.000000000000e+00
          1.539799217152e-03 6.378057295413e-04 0.000000000000e+00
          1.570595201495e-03 6.505618441321e-04 0.000000000000e+00
          1.601391185838e-03 6.633179587229e-04 0.000000000000e+00
          1.632187170181e-03 6.760740733138e-04 0.000000000000e+00
          1.662983154524e-03 6.888301879046e-04 0.000000000000e+00
          1.693779138867e-03 7.015863024954e-04 0.000000000000e+00
          1.724575123210e-03 7.143424170862e-04 0.000000000000e+00
          1.755371107553e-03 7.270985316771e-04 0.000000000000e+00
          1.786167091896e-03 7.398546462679e-04 0.000000000000e+00
          1.816963076239e-03 7.526107608587e-04 0.000000000000e+00
          1.847759060582e-03 7.653668754495e-04 0.000000000000e+00
          8.819212609300e-04 4.713967432213e-04 0.000000000000e+00
          9.113186362943e-04 4.871099679954e-04 0.000000000000e+00
          9.407160116586e-04 5.028231927694e-04 0.000000000000e+00
          9.701133870230e-04 5.185364175435e-04 0.000000000000e+00
          9.995107623873e-04 5.342496423175e-04 0.000000000000e+00
          1.028908137752e-03 5.499628670916e-04 0.000000000000e+00
          1.058305513116e-03 5.656760918656e-04 0.000000000000e+00
          1.087702888480e-03 5.813893166396e-04 0.000000000000e+00
          1.117100263845e-03 5.971025414137e-04 0.000000000000e+00
          1.146497639209e-03 6.128157661877e-04 0.000000000000e+00
          1.175895014573e-03 6.285289909618e-04 0.000000000000e+00
          1.205292389938e-03 6.442422157358e-04 0.000000000000e+00
          1.234689765302e-03 6.599554405099e-04 0.000000000000e+00
          1.264087140666e-03 6.756686652839e-04 0.000000000000e+00
          1.293484516031e-03 6.913818900580e-04 0.000000000000e+00
          1.322881891395e-03 7.070951148320e-04 0.000000000000e+00
          1.352279266759e-03 7.228083396060e-04 0.000000000000e+00
          1.381676642124e-03 7.385215643801e-04 0.000000000000e+00
          1.411074017488e-03 7.542347891541e-04 0.000000000000e+00
          1.440471392852e-03 7.699480139282e-04 0.000000000000e+00
          1.469868768217e-03 7.856612387022e-04 0.000000000000e+00
          1.499266143581e-03 8.013744634763e-04 0.000000000000e+00
          1.528663518945e-03 8.170876882503e-04 0.000000000000e+00
          1.558060894310e-03 8.328009130244e-04 0.000000000000e+00
          1.587458269674e-03 8.485141377984e-04 0.000000000000e+00
          1.616855645038e-03 8.642273625724e-04 0.000000000000e+00
          1.646253020403e-03 8.799405873465e-04 0.000000000000e+00
          1.675650395767e-03 8.956538121205e-04 0.000000000000e+00
          1.705047771131e-03 9.113670368946e-04 0.000000000000e+00
          1.734445146496e-03 9.270802616686e-04 0.000000000000e+00
          1.763842521860e-03 9.427934864427e-04 0.000000000000e+00
          8.314696074680e-04 5.555702402550e-04 0.000000000000e+00
          8.591852610503e-04 5.740892482635e-04 0.000000000000e+00
          8.869009146326e-04 5.926082562720e-04 0.000000000000e+00
          9.146165682148e-04 6.111272642805e-04 0.000000000000e+00
          9.423322217971e-04 6.296462722890e-04 0.000000000000e+00
          9.700478753794e-04 6.481652802975e-04 0.000000000000e+00
          9.977635289616e-04 6.666842883060e-04 0.000000000000e+00
          1.025479182544e-03 6.852032963145e-04 0.000000000000e+00
          1.053194836126e-03 7.037223043230e-04 0.000000000000e+00
          1.080910489708e-03 7.222413123315e-04 0.000000000000e+00
          1.108626143291e-03 7.407603203400e-04 0.000000000000e+00
          1.136341796873e-03 7.592793283485e-04 0.000000000000e+00
          1.164057450455e-03 7.777983363570e-04 0.000000000000e+00
          1.191773104038e-03 7.963173443655e-04 0.000000000000e+00
          1.219488757620e-03 8.148363523740e-04 0.000000000000e+00
          1.247204411202e-03 8.333553603825e-04 0.000000000000e+00
          1.274920064784e-03 8.518743683910e-04 0.000000000000e+00
          1.302635718367e-03 8.703933763995e-04 0.000000000000e+00
          1.330351371949e-03 8.889123844080e-04 0.000000000000e+00
          1.358067025531e-03 9.074313924165e-04 0.000000000000e+00
          1.385782679113e-03 9.259504004250e-04 0.000000000000e+00
          1.413498332696e-03 9.444694084335e-04 0.000000000000e+00
          1.441213986278e-03 9.629884164420e-04 0.000000000000e+00
          1.468929639860e-03 9.815074244505e-04 0.000000000000e+00
          1.496645293442e-03 1.000026432459e-03 0.000000000000e+00
          1.524360947025e-03 1.018545440467e-03 0.000000000000e+00
          1.552076600607e-03 1.037064448476e-03 0.000000000000e+00
          1.579792254189e-03 1.055583456484e-03 0.000000000000e+00
          1.607507907772e-03 1.074102464493e-03 0.000000000000e+00
          1.635223561354e-03 1.092621472501e-03 0.000000000000e+00
          1.662939214936e-03 1.111140480510e-03 0.000000000000e+00
          7.730104469222e-04 6.343932920114e-04 0.000000000000e+00
          7.987774618196e-04 6.555397350785e-04 0.000000000000e+00
          8.245444767170e-04 6.766861781455e-04 0.000000000000e+00
          8.503114916145e-04 6.978326212126e-04 0.000000000000e+00
          8.760785065119e-04 7.189790642796e-04 0.000000000000e+00
          9.018455214093e-04 7.401255073467e-04 0.000000000000e+00
          9.276125363067e-04 7.612719504137e-04 0.000000000000e+00
          9.533795512041e-04 7.824183934808e-04 0.000000000000e+00
          9.791465661015e-04 8.035648365478e-04 0.000000000000e+00
          1.004913580999e-03 8.247112796149e-04 0.000000000000e+00
          1.030680595896e-03 8.458577226819e-04 0.000000000000e+00
          1.056447610794e-03 8.670041657489e-04 0.000000000000e+00
          1.082214625691e-03 8.881506088160e-04 0.000000000000e+00
          1.107981640589e-03 9.092970518830e-04 0.000000000000e+00
          1.133748655486e-03 9.304434949501e-04 0.000000000000e+00
          1.159515670383e-03 9.515899380171e-04 0.000000000000e+00
          1.185282685281e-03 9.727363810842e-04 0.000000000000e+00
          1.211049700178e-03 9.938828241512e-04 0.000000000000e+00
          1.236816715076e-03 1.015029267218e-03 0.000000000000e+00
          1.262583729973e-03 1.036175710285e-03 0.000000000000e+00
          1.288350744870e-03 1.057322153352e-03 0.000000000000e+00
          1.314117759768e-03 1.078468596419e-03 0.000000000000e+00
          1.339884774665e-03 1.099615039486e-03 0.000000000000e+00
          1.365651789563e-03 1.120761482554e-03 0.000000000000e+00
          1.391418804460e-03 1.141907925621e-03 0.000000000000e+00
          1.417185819357e-03 1.163054368688e-03 0.000000000000e+00
          1.442952834255e-03 1.184200811755e-03 0.000000000000e+00
          1.468719849152e-03 1.205347254822e-03 0.000000000000e+00
          1.494486864050e-03 1.226493697889e-03 0.000000000000e+00
          1.520253878947e-03 1.247640140956e-03 0.000000000000e+00
          1.546020893844e-03 1.268786584023e-03 0.000000000000e+00
          7.071067729823e-04 7.071067893908e-04 0.000000000000e+00
          7.306769987484e-04 7.306770157038e-04 0.000000000000e+00
          7.542472245145e-04 7.542472420168e-04 0.000000000000e+00
          7.778174502805e-04 7.778174683299e-04 0.000000000000e+00
          8.013876760466e-04 8.013876946429e-04 0.000000000000e+00
          8.249579018127e-04 8.249579209559e-04 0.000000000000e+00
          8.485281275788e-04 8.485281472689e-04 0.000000000000e+00
          8.720983533448e-04 8.720983735820e-04 0.000000000000e+00
          8.956685791109e-04 8.956685998950e-04 0.000000000000e+00
          9.192388048770e-04 9.192388262080e-04 0.000000000000e+00
          9.428090306431e-04 9.428090525211e-04 0.000000000000e+00
          9.663792564091e-04 9.663792788341e-04 0.000000000000e+00
          9.899494821752e-04 9.899495051471e-04 0.000000000000e+00
          1.013519707941e-03 1.013519731460e-03 0.000000000000e+00
          1.037089933707e-03 1.037089957773e-03 0.000000000000e+00
          1.060660159473e-03 1.060660184086e-03 0.000000000000e+00
          1.084230385240e-03 1.084230410399e-03 0.000000000000e+00
          1.107800611006e-03 1.107800636712e-03 0.000000000000e+00
          1.131370836772e-03 1.131370863025e-03 0.000000000000e+00
          1.154941062538e-03 1.154941089338e-03 0.000000000000e+00
          1.178511288304e-03 1.178511315651e-03 0.000000000000e+00
          1.202081514070e-03 1.202081541964e-03 0.000000000000e+00
          1.225651739836e-03 1.225651768277e-03 0.000000000000e+00
          1.249221965602e-03 1.249221994590e-03 0.000000000000e+00
          1.272792191368e-03 1.272792220903e-03 0.000000000000e+00
          1.296362417134e-03 1.296362447216e-03 0.000000000000e+00
          1.319932642900e-03 1.319932673529e-03 0.000000000000e+00
          1.343502868666e-03 1.343502899843e-03 0.000000000000e+00
          1.367073094432e-03 1.367073126156e-03 0.000000000000e+00
          1.390643320199e-03 1.390643352469e-03 0.000000000000e+00
          1.414213545965e-03 1.414213578782e-03 0.000000000000e+00
          6.343932740736e-04 7.730104616434e-04 0.000000000000e+00
          6.555397165428e-04 7.987774770315e-04 0.000000000000e+00
          6.766861590119e-04 8.245444924196e-04 0.000000000000e+00
          6.978326014810e-04 8.503115078077e-04 0.000000000000e+00
          7.189790439501e-04 8.760785231958e-04 0.000000000000e+00
          7.401254864192e-04 9.018455385840e-04 0.000000000000e+00
          7.612719288884e-04 9.276125539721e-04 0.000000000000e+00
          7.824183713575e-04 9.533795693602e-04 0.000000000000e+00
          8.035648138266e-04 9.791465847483e-04 0.000000000000e+00
          8.247112562957e-04 1.004913600136e-03 0.000000000000e+00
          8.458576987649e-04 1.030680615525e-03 0.000000000000e+00
          8.670041412340e-04 1.056447630913e-03 0.000000000000e+00
          8.881505837031e-04 1.082214646301e-03 0.000000000000e+00
          9.092970261722e-04 1.107981661689e-03 0.000000000000e+00
          9.304434686413e-04 1.133748677077e-03 0.000000000000e+00
          9.515899111105e-04 1.159515692465e-03 0.000000000000e+00
          9.727363535796e-04 1.185282707853e-03 0.000000000000e+00
          9.938827960487e-04 1.211049723241e-03 0.000000000000e+00
          1.015029238518e-03 1.236816738629e-03 0.000000000000e+00
          1.036175680987e-03 1.262583754018e-03 0.000000000000e+00
          1.057322123456e-03 1.288350769406e-03 0.000000000000e+00
          1.078468565925e-03 1.314117784794e-03 0.000000000000e+00
          1.099615008394e-03 1.339884800182e-03 0.000000000000e+00
          1.120761450863e-03 1.365651815570e-03 0.000000000000e+00
          1.141907893333e-03 1.391418830958e-03 0.000000000000e+00
          1.163054335802e-03 1.417185846346e-03 0.000000000000e+00
          1.184200778271e-03 1.442952861734e-03 0.000000000000e+00
          1.205347220740e-03 1.468719877122e-03 0.000000000000e+00
          1.226493663209e-03 1.494486892511e-03 0.000000000000e+00
          1.247640105678e-03 1.520253907899e-03 0.000000000000e+00
          1.268786548147e-03 1.546020923287e-03 0.000000000000e+00
          5.555702209606e-04 8.314696203601e-04 0.000000000000e+00
          5.740892283260e-04 8.591852743721e-04 0.000000000000e+00
          5.926082356914e-04 8.869009283841e-04 0.000000000000e+00
          6.111272430567e-04 9.146165823961e-04 0.000000000000e+00
          6.296462504221e-04 9.423322364081e-04 0.000000000000e+00
          6.481652577874e-04 9.700478904201e-04 0.000000000000e+00
          6.666842651528e-04 9.977635444321e-04 0.000000000000e+00
          6.852032725181e-04 1.025479198444e-03 0.000000000000e+00
          7.037222798835e-04 1.053194852456e-03 0.000000000000e+00
          7.222412872488e-04 1.080910506468e-03 0.000000000000e+00
          7.407602946142e-04 1.108626160480e-03 0.000000000000e+00
          7.592793019795e-04 1.136341814492e-03 0.000000000000e+00
          7.777983093449e-04 1.164057468504e-03 0.000000000000e+00
          7.963173167103e-04 1.191773122516e-03 0.000000000000e+00
          8.148363240756e-04 1.219488776528e-03 0.000000000000e+00
          8.333553314410e-04 1.247204430540e-03 0.000000000000e+00
          8.518743388063e-04 1.274920084552e-03 0.000000000000e+00
          8.703933461717e-04 1.302635738564e-03 0.000000000000e+00
          8.889123535370e-04 1.330351392576e-03 0.000000000000e+00
          9.074313609024e-04 1.358067046588e-03 0.000000000000e+00
          9.259503682677e-04 1.385782700600e-03 0.000000000000e+00
          9.444693756331e-04 1.413498354612e-03 0.000000000000e+00
          9.629883829984e-04 1.441214008624e-03 0.000000000000e+00
          9.815073903638e-04 1.468929662636e-03 0.000000000000e+00
          1.000026397729e-03 1.496645316648e-03 0.000000000000e+00
          1.018545405095e-03 1.524360970660e-03 0.000000000000e+00
          1.037064412460e-03 1.552076624672e-03 0.000000000000e+00
          1.055583419825e-03 1.579792278684e-03 0.000000000000e+00
          1.074102427191e-03 1.607507932696e-03 0.000000000000e+00
          1.092621434556e-03 1.635223586708e-03 0.000000000000e+00
          1.111140441921e-03 1.662939240720e-03 0.000000000000e+00
          4.713967227563e-04 8.819212718688e-04 0.000000000000e+00
          4.871099468481e-04 9.113186475977e-04 0.000000000000e+00
          5.028231709400e-04 9.407160233267e-04 0.000000000000e+00
          5.185363950319e-04 9.701133990557e-04 0.000000000000e+00
          5.342496191238e-04 9.995107747846e-04 0.000000000000e+00
          5.499628432156e-04 1.028908150514e-03 0.000000000000e+00
          5.656760673075e-04 1.058305526243e-03 0.000000000000e+00
          5.813892913994e-04 1.087702901971e-03 0.000000000000e+00
          5.971025154913e-04 1.117100277700e-03 0.000000000000e+00
          6.128157395831e-04 1.146497653429e-03 0.000000000000e+00
          6.285289636750e-04 1.175895029158e-03 0.000000000000e+00
          6.442421877669e-04 1.205292404887e-03 0.000000000000e+00
          6.599554118588e-04 1.234689780616e-03 0.000000000000e+00
          6.756686359506e-04 1.264087156345e-03 0.000000000000e+00
          6.913818600425e-04 1.293484532074e-03 0.000000000000e+00
          7.070950841344e-04 1.322881907803e-03 0.000000000000e+00
          7.228083082263e-04 1.352279283532e-03 0.000000000000e+00
          7.385215323181e-04 1.381676659261e-03 0.000000000000e+00
          7.542347564100e-04 1.411074034990e-03 0.000000000000e+00
          7.699479805019e-04 1.440471410719e-03 0.000000000000e+00
          7.856612045938e-04 1.469868786448e-03 0.000000000000e+00
          8.013744286856e-04 1.499266162177e-03 0.000000000000e+00
          8.170876527775e-04 1.528663537906e-03 0.000000000000e+00
          8.328008768694e-04 1.558060913635e-03 0.000000000000e+00
          8.485141009613e-04 1.587458289364e-03 0.000000000000e+00
          8.642273250531e-04 1.616855665093e-03 0.000000000000e+00
          8.799405491450e-04 1.646253040822e-03 0.000000000000e+00
          8.956537732369e-04 1.675650416551e-03 0.000000000000e+00
          9.113669973288e-04 1.705047792280e-03 0.000000000000e+00
          9.270802214206e-04 1.734445168009e-03 0.000000000000e+00
          9.427934455125e-04 1.763842543738e-03 0.000000000000e+00
          3.826834162860e-04 9.238795391714e-04 0.000000000000e+00
          3.954395301623e-04 9.546755238105e-04 0.000000000000e+00
          4.081956440385e-04 9.854715084495e-04 0.000000000000e+00
          4.209517579147e-04 1.016267493089e-03 0.000000000000e+00
          4.337078717909e-04 1.047063477728e-03 0.000000000000e+00
          4.464639856671e-04 1.077859462367e-03 0.000000000000e+00
          4.592200995433e-04 1.108655447006e-03 0.000000000000e+00
          4.719762134195e-04 1.139451431645e-03 0.000000000000e+00
          4.847323272957e-04 1.170247416284e-03 0.000000000000e+00
          4.974884411719e-04 1.201043400923e-03 0.000000000000e+00
          5.102445550481e-04 1.231839385562e-03 0.000000000000e+00
          5.230006689243e-04 1.262635370201e-03 0.000000000000e+00
          5.357567828005e-04 1.293431354840e-03 0.000000000000e+00
          5.485128966767e-04 1.324227339479e-03 0.000000000000e+00
          5.612690105529e-04 1.355023324118e-03 0.000000000000e+00
          5.740251244291e-04 1.385819308757e-03 0.000000000000e+00
          5.867812383053e-04 1.416615293396e-03 0.000000000000e+00
          5.995373521815e-04 1.447411278035e-03 0.000000000000e+00
          6.122934660577e-04 1.478207262674e-03 0.000000000000e+00
          6.250495799339e-04 1.509003247313e-03 0.000000000000e+00
          6.378056938101e-04 1.539799231952e-03 0.000000000000e+00
          6.505618076863e-04 1.570595216591e-03 0.000000000000e+00
          6.633179215625e-04 1.601391201230e-03 0.000000000000e+00
          6.760740354387e-04 1.632187185870e-03 0.000000000000e+00
          6.888301493149e-04 1.662983170509e-03 0.000000000000e+00
          7.015862631911e-04 1.693779155148e-03 0.000000000000e+00
          7.143423770673e-04 1.724575139787e-03 0.000000000000e+00
          7.270984909435e-04 1.755371124426e-03 0.000000000000e+00
          7.398546048197e-04 1.786167109065e-03 0.000000000000e+00
          7.526107186959e-04 1.816963093704e-03 0.000000000000e+00
          7.653668325721e-04 1.847759078343e-03 0.000000000000e+00
          2.902846592122e-04 9.569403412053e-04 0.000000000000e+00
          2.999608145192e-04 9.888383525788e-04 0.000000000000e+00
          3.096369698263e-04 1.020736363952e-03 0.000000000000e+00
          3.193131251334e-04 1.052634375326e-03 0.000000000000e+00
          3.289892804405e-04 1.084532386699e-03 0.000000000000e+00
          3.386654357475e-04 1.116430398073e-03 0.000000000000e+00
          3.483415910546e-04 1.148328409446e-03 0.000000000000e+00
          3.580177463617e-04 1.180226420820e-03 0.000000000000e+00
          3.676939016687e-04 1.212124432193e-03 0.000000000000e+00
          3.773700569758e-04 1.244022443567e-03 0.000000000000e+00
          3.870462122829e-04 1.275920454940e-03 0.000000000000e+00
          3.967223675900e-04 1.307818466314e-03 0.000000000000e+00
          4.063985228970e-04 1.339716477687e-03 0.000000000000e+00
          4.160746782041e-04 1.371614489061e-03 0.000000000000e+00
          4.257508335112e-04 1.403512500434e-03 0.000000000000e+00
          4.354269888183e-04 1.435410511808e-03 0.000000000000e+00
          4.451031441253e-04 1.467308523181e-03 0.000000000000e+00
          4.547792994324e-04 1.499206534555e-03 0.000000000000e+00
          4.644554547395e-04 1.531104545928e-03 0.000000000000e+00
          4.741316100465e-04 1.563002557302e-03 0.000000000000e+00
          4.838077653536e-04 1.594900568675e-03 0.000000000000e+00
          4.934839206607e-04 1.626798580049e-03 0.000000000000e+00
          5.031600759678e-04 1.658696591422e-03 0.000000000000e+00
          5.128362312748e-04 1.690594602796e-03 0.000000000000e+00
          5.225123865819e-04 1.722492614169e-03 0.000000000000e+00
          5.321885418890e-04 1.754390625543e-03 0.000000000000e+00
          5.418646971960e-04 1.786288636917e-03 0.000000000000e+00
          5.515408525031e-04 1.818186648290e-03 0.000000000000e+00
          5.612170078102e-04 1.850084659664e-03 0.000000000000e+00
          5.708931631173e-04 1.881982671037e-03 0.000000000000e+00
          5.805693184243e-04 1.913880682411e-03 0.000000000000e+00
          1.950903021018e-04 9.807852843644e-04 0.000000000000e+00
          2.015933121719e-04 1.013478127177e-03 0.000000000000e+00
          2.080963222419e-04 1.046170969989e-03 0.000000000000e+00
          2.145993323120e-04 1.078863812801e-03 0.000000000000e+00
          2.211023423820e-04 1.111556655613e-03 0.000000000000e+00
          2.276053524521e-04 1.144249498425e-03 0.000000000000e+00
          2.341083625222e-04 1.176942341237e-03 0.000000000000e+00
          2.406113725922e-04 1.209635184049e-03 0.000000000000e+00
          2.471143826623e-04 1.242328026862e-03 0.000000000000e+00
          2.536173927323e-04 1.275020869674e-03 0.000000000000e+00
          2.601204028024e-04 1.307713712486e-03 0.000000000000e+00
          2.666234128725e-04 1.340406555298e-03 0.000000000000e+00
          2.731264229425e-04 1.373099398110e-03 0.000000000000e+00
          2.796294330126e-04 1.405792240922e-03 0.000000000000e+00
          2.861324430827e-04 1.438485083735e-03 0.000000000000e+00
          2.926354531527e-04 1.471177926547e-03 0.000000000000e+00
          2.991384632228e-04 1.503870769359e-03 0.000000000000e+00
          3.056414732928e-04 1.536563612171e-03 0.000000000000e+00
          3.121444833629e-04 1.569256454983e-03 0.000000000000e+00
          3.186474934330e-04 1.601949297795e-03 0.000000000000e+00
          3.251505035030e-04 1.634642140607e-03 0.000000000000e+00
          3.316535135731e-04 1.667334983420e-03 0.000000000000e+00
          3.381565236431e-04 1.700027826232e-03 0.000000000000e+00
          3.446595337132e-04 1.732720669044e-03 0.000000000000e+00
          3.511625437833e-04 1.765413511856e-03 0.000000000000e+00
          3.576655538533e-04 1.798106354668e-03 0.000000000000e+00
          3.641685639234e-04 1.830799197480e-03 0.000000000000e+00
          3.706715739934e-04 1.863492040292e-03 0.000000000000e+00
          3.771745840635e-04 1.896184883105e-03 0.000000000000e+00
          3.836775941336e-04 1.928877725917e-03 0.000000000000e+00
          3.901806042036e-04 1.961570568729e-03 0.000000000000e+00
          9.801711867953e-05 9.951847288045e-04 0.000000000000e+00
          1.012843559688e-04 1.028357553098e-03 0.000000000000e+00
          1.045515932582e-04 1.061530377392e-03 0.000000000000e+00
          1.078188305475e-04 1.094703201685e-03 0.000000000000e+00
          1.110860678368e-04 1.127876025978e-03 0.000000000000e+00
          1.143533051261e-04 1.161048850272e-03 0.000000000000e+00
          1.176205424154e-04 1.194221674565e-03 0.000000000000e+00
          1.208877797048e-04 1.227394498859e-03 0.000000000000e+00
          1.241550169941e-04 1.260567323152e-03 0.000000000000e+00
          1.274222542834e-04 1.293740147446e-03 0.000000000000e+00
          1.306894915727e-04 1.326912971739e-03 0.000000000000e+00
          1.339567288620e-04 1.360085796033e-03 0.000000000000e+00
          1.372239661513e-04 1.393258620326e-03 0.000000000000e+00
          1.404912034407e-04 1.426431444620e-03 0.000000000000e+00
          1.437584407300e-04 1.459604268913e-03 0.000000000000e+00
          1.470256780193e-04 1.492777093207e-03 0.000000000000e+00
          1.502929153086e-04 1.525949917500e-03 0.000000000000e+00
          1.535601525979e-04 1.559122741794e-03 0.000000000000e+00
          1.568273898872e-04 1.592295566087e-03 0.000000000000e+00
          1.600946271766e-04 1.625468390381e-03 0.000000000000e+00
          1.633618644659e-04 1.658641214674e-03 0.000000000000e+00
          1.666291017552e-04 1.691814038968e-03 0.000000000000e+00
          1.698963390445e-04 1.724986863261e-03 0.000000000000e+00
          1.731635763338e-04 1.758159687555e-03 0.000000000000e+00
          1.764308136232e-04 1.791332511848e-03 0.000000000000e+00
          1.796980509125e-04 1.824505336142e-03 0.000000000000e+00
          1.829652882018e-04 1.857678160435e-03 0.000000000000e+00
          1.862325254911e-04 1.890850984729e-03 0.000000000000e+00
          1.894997627804e-04 1.924023809022e-03 0.000000000000e+00
          1.927670000697e-04 1.957196633316e-03 0.000000000000e+00
          1.960342373591e-04 1.990369457609e-03 0.000000000000e+00
          -2.320510333314e-11 1.000000000000e-03 0.000000000000e+00
          -2.397860677758e-11 1.033333333333e-03 0.000000000000e+00
          -2.475211022202e-11 1.066666666667e-03 0.000000000000e+00
          -2.552561366646e-11 1.100000000000e-03 0.000000000000e+00
          -2.629911711090e-11 1.133333333333e-03 0.000000000000e+00
          -2.707262055534e-11 1.166666666667e-03 0.000000000000e+00
          -2.784612399977e-11 1.200000000000e-03 0.000000000000e+00
          -2.861962744421e-11 1.233333333333e-03 0.000000000000e+00
          -2.939313088865e-11 1.266666666667e-03 0.000000000000e+00
          -3.016663433309e-11 1.300000000000e-03 0.000000000000e+00
          -3.094013777753e-11 1.333333333333e-03 0.000000000000e+00
          -3.171364122196e-11 1.366666666667e-03 0.000000000000e+00
          -3.248714466640e-11 1.400000000000e-03 0.000000000000e+00
          -3.326064811084e-11 1.433333333333e-03 0.000000000000e+00
          -3.403415155528e-11 1.466666666667e-03 0.000000000000e+00
          -3.480765499972e-11 1.500000000000e-03 0.000000000000e+00
          -3.558115844415e-11 1.533333333333e-03 0.000000000000e+00
          -3.635466188859e-11 1.566666666667e-03 0.000000000000e+00
          -3.712816533303e-11 1.600000000000e-03 0.000000000000e+00
          -3.790166877747e-11 1.633333333333e-03 0.000000000000e+00
          -3.867517222191e-11 1.666666666667e-03 0.000000000000e+00
          -3.944867566635e-11 1.700000000000e-03 0.000000000000e+00
          -4.022217911078e-11 1.733333333333e-03 0.000000000000e+00
          -4.099568255522e-11 1.766666666667e-03 0.000000000000e+00
          -4.176918599966e-11 1.800000000000e-03 0.000000000000e+00
          -4.254268944410e-11 1.833333333333e-03 0.000000000000e+00
          -4.331619288854e-11 1.866666666667e-03 0.000000000000e+00
          -4.408969633297e-11 1.900000000000e-03 0.000000000000e+00
          -4.486319977741e-11 1.933333333333e-03 0.000000000000e+00
          -4.563670322185e-11 1.966666666667e-03 0.000000000000e+00
          -4.641020666629e-11 2.000000000000e-03 0.000000000000e+00
        </DataArray>
      </Points>
      <Cells>
        <DataArray type="Int64" Name="connectivity" format="ascii">
          31 0 1 32 
          32 1 2 33 
          33 2 3 34 
          34 3 4 35 
          35 4 5 36 
          36 5 6 37 
          37 6 7 38 
          38 7 8 39 
          39 8 9 40 
          40 9 10 41 
          41 10 11 42 
          42 11 12 43 
          43 12 13 44 
          44 13 14 45 
          45 14 15 46 
          46 15 16 47 
          47 16 17 48 
          48 17 18 49 
          49 18 19 50 
          50 19 20 51 
          51 20 21 52 
          52 21 22 53 
          53 22 23 54 
          54 23 24 55 
          55 24 25 56 
          56 25 26 57 
          57 26 27 58 
          58 27 28 59 
          59 28 29 60 
          60 29 30 61 
          62 31 32 63 
          63 32 33 64 
          64 33 34 65 
          65 34 35 66 
          66 35 36 67 
          67 36 37 68 
          68 37 38 69 
          69 38 39 70 
          70 39 40 71 
          71 40 41 72 
          72 41 42 73 
          73 42 43 74 
          74 43 44 75 
          75 44 45 76 
          76 45 46 77 
          77 46 47 78 
          78 47 48 79 
          79 48 49 80 
          80 49 50 81 
          81 50 51 82 
          82 51 52 83 
          83 52 53 84 
          84 53 54 85 
          85 54 55 86 
          86 55 56 87 
          87 56 57 88 
          88 57 58 89 
          89 58 59 90 
          90 59 60 91 
          91 60 61 92 
          93 62 63 94 
          94 63 64 95 
          95 64 65 96 
          96 65 66 97 
          97 66 67 98 
          98 67 68 99 
          99 68 69 100 
          100 69 70 101 
          101 70 71 102 
          102 71 72 103 
          103 72 73 104 
          104 73 74 105 
          105 74 75 106 
          106 75 76 107 
          107 76 77 108 
          108 77 78 109 
          109 78 79 110 
          110 79 80 111 
          111 80 81 112 
          112 81 82 113 
          113 82 83 114 
          114 83 84 115 
          115 84 85 116 
          116 85 86 117 
          117 86 87 118 
          118 87 88 119 
          119 88 89 120 
          120 89 90 121 
          121 90 91 122 
          122 91 92 123 
          124 93 94 125 
          125 94 95 126 
          126 95 96 127 
          127 96 97 128 
          128 97 98 129 
          129 98 99 130 
          130 99 100 131 
          131 100 101 132 
          132 101 102 133 
          133 102 103 134 
          134 103 104 135 
          135 104 105 136 
          136 105 106 137 
          137 106 107 138 
          138 107 108 139 
          139 108 109 140 
          140 109 110 141 
          141 110 111 142 
          142 111 112 143 
          143 112 113 144 
          144 113 114 145 
          145 114 115 146 
          146 115 116 147 
          147 116 117 148 
          148 117 118 149 
          149 118 119 150 
          150 119 120 151 
          151 120 121 152 
          152 121 122 153 
          153 122 123 154 
          155 124 125 156 
          156 125 126 157 
          157 126 127 158 
          158 127 128 159 
          159 128 129 160 
          160 129 130 161 
          161 130 131 162 
          162 131 132 163 
          163 132 133 164 
          164 133 134 165 
          165 134 135 166 
          166 135 136 167 
          167 136 137 168 
          168 137 138 169 
          169 138 139 170 
          170 139 140 171 
          171 140 141 172 
          172 141 142 173 
          173 142 143 174 
          174 143 144 175 
          175 144 145 176 
          176 145 146 177 
          177 146 147 178 
          178 147 148 179 
          179 148 149 180 
          180 149 150 181 
          181 150 151 182 
          182 151 152 183 
          183 152 153 184 
          184 153 154 185 
          186 155 156 187 
          187 156 157 188 
          188 157 158 189 
          189 158 159 190 
          190 159 160 191 
          191 160 161 192 
          192 161 162 193 
          193 162 163 194 
          194 163 164 195 
          195 164 165 196 
          196 165 166 197 
          197 166 167 198 
          198 167 168 199 
          199 168 169 200 
          200 169 170 201 
          201 170 171 202 
          202 171 172 203 
          203 172 173 204 
          204 173 174 205 
          205 174 175 206 
          206 175 176 207 
          207 176 177 208 
          208 177 178 209 
          209 178 179 210 
          210 179 180 211 
          211 180 181 212 
          212 181 182 213 
          213 182 183 214 
          214 183 184 215 
          215 184 185 216 
          217 186 187 218 
          218 187 188 219 
          219 188 189 220 
          220 189 190 221 
          221 190 191 222 
          222 191 192 223 
          223 192 193 224 
          224 193 194 225 
          225 194 195 226 
          226 195 196 227 
          227 196 197 228 
          228 197 198 229 
          229 198 199 230 
          230 199 200 231 
          231 200 201 232 
          232 201 202 233 
          233 202 203 234 
          234 203 204 235 
          235 204 205 236 
          236 205 206 237 
          237 206 207 238 
          238 207 208 239 
          239 208 209 240 
          240 209 210 241 
          241 210 211 242 
          242 211 212 243 
          243 212 213 244 
          244 213 214 245 
          245 214 215 246 
          246 215 216 247 
          248 217 218 249 
          249 218 219 250 
          250 219 220 251 
          251 220 221 252 
          252 221 222 253 
          253 222 223 254 
          254 223 224 255 
          255 224 225 256 
          256 225 226 257 
          257 226 227 258 
          258 227 228 259 
          259 228 229 260 
          260 229 230 261 
          261 230 231 262 
          262 231 232 263 
          263 232 233 264 
          264 233 234 265 
          265 234 235 266 
          266 235 236 267 
          267 236 237 268 
          268 237 238 269 
          269 238 239 270 
          270 239 240 271 
          271 240 241 272 
          272 241 242 273 
          273 242 243 274 
          274 243 244 275 
          275 244 245 276 
          276 245 246 277 
          277 246 247 278 
          279 248 249 280 
          280 249 250 281 
          281 250 251 282 
          282 251 252 283 
          283 252 253 284 
          284 253 254 285 
          285 254 255 286 
          286 255 256 287 
          287 256 257 288 
          288 257 258 289 
          289 258 259 290 
          290 259 260 291 
          291 260 261 292 
          292 261 262 293 
          293 262 263 294 
          294 263 264 295 
          295 264 265 296 
          296 265 266 297 
          297 266 267 298 
          298 267 268 299 
          299 268 269 300 
          300 269 270 301 
          301 270 271 302 
          302 271 272 303 
          303 272 273 304 
          304 273 274 305 
          305 274 275 306 
          306 275 276 307 
          307 276 277 308 
          308 277 278 309 
          310 279 280 311 
          311 280 281 312 
          312 281 282 313 
          313 282 283 314 
          314 283 284 315 
          315 284 285 316 
          316 285 286 317 
          317 286 287 318 
          318 287 288 319 
          319 288 289 320 
          320 289 290 321 
          321 290 291 322 
          322 291 292 323 
          323 292 293 324 
          324 293 294 325 
          325 294 295 326 
          326 295 296 327 
          327 296 297 328 
          328 297 298 329 
          329 298 299 330 
          330 299 300 331 
          331 300 301 332 
          332 301 302 333 
          333 302 303 334 
          334 303 304 335 
          335 304 305 336 
          336 305 306 337 
          337 306 307 338 
          338 307 308 339 
          339 308 309 340 
          341 310 311 342 
          342 311 312 343 
          343 312 313 344 
          344 313 314 345 
          345 314 315 346 
          346 315 316 347 
          347 316 317 348 
          348 317 318 349 
          349 318 319 350 
          350 319 320 351 
          351 320 321 352 
          352 321 322 353 
          353 322 323 354 
          354 323 324 355 
          355 324 325 356 
          356 325 326 357 
          357 326 327 358 
          358 327 328 359 
          359 328 329 360 
          360 329 330 361 
          361 330 331 362 
          362 331 332 363 
          363 332 333 364 
          364 333 334 365 
          365 334 335 366 
          366 335 336 367 
          367 336 337 368 
          368 337 338 369 
          369 338 339 370 
          370 339 340 371 
          372 341 342 373 
          373 342 343 374 
          374 343 344 375 
          375 344 345 376 
          376 345 346 377 
          377 346 347 378 
          378 347 348 379 
          379 348 349 380 
          380 349 350 381 
          381 350 351 382 
          382 351 352 383 
          383 352 353 384 
          384 353 354 385 
          385 354 355 386 
          386 355 356 387 
          387 356 357 388 
          388 357 358 389 
          389 358 359 390 
          390 359 360 391 
          391 360 361 392 
          392 361 362 393 
          393 362 363 394 
          394 363 364 395 
          395 364 365 396 
          396 365 366 397 
          397 366 367 398 
          398 367 368 399 
          399 368 369 400 
          400 369 370 401 
          401 370 371 402 
          403 372 373 404 
          404 373 374 405 
          405 374 375 406 
          406 375 376 407 
          407 376 377 408 
          408 377 378 409 
          409 378 379 410 
          410 379 380 411 
          411 380 381 412 
          412 381 382 413 
          413 382 383 414 
          414 383 384 415 
          415 384 385 416 
          416 385 386 417 
          417 386 387 418 
          418 387 388 419 
          419 388 389 420 
          420 389 390 421 
          421 390 391 422 
          422 391 392 423 
          423 392 393 424 
          424 393 394 425 
          425 394 395 426 
          426 395 396 427 
          427 396 397 428 
          428 397 398 429 
          429 398 399 430 
          430 399 400 431 
          431 400 401 432 
          432 401 402 433 
          434 403 404 435 
          435 404 405 436 
          436 405 406 437 
          437 406 407 438 
          438 407 408 439 
          439 408 409 440 
          440 409 410 441 
          441 410 411 442 
          442 411 412 443 
          443 412 413 444 
          444 413 414 445 
          445 414 415 446 
          446 415 416 447 
          447 416 417 448 
          448 417 418 449 
          449 418 419 450 
          450 419 420 451 
          451 420 421 452 
          452 421 422 453 
          453 422 423 454 
          454 423 424 455 
          455 424 425 456 
          456 425 426 457 
          457 426 427 458 
          458 427 428 459 
          459 428 429 460 
          460 429 430 461 
          461 430 431 462 
          462 431 432 463 
          463 432 433 464 
          465 434 435 466 
          466 435 436 467 
          467 436 437 468 
          468 437 438 469 
          469 438 439 470 
          470 439 440 471 
          471 440 441 472 
          472 441 442 473 
          473 442 443 474 
          474 443 444 475 
          475 444 445 476 
          476 445 446 477 
          477 446 447 478 
          478 447 448 479 
          479 448 449 480 
          480 449 450 481 
          481 450 451 482 
          482 451 452 483 
          483 452 453 484 
          484 453 454 485 
          485 454 455 486 
          486 455 456 487 
          487 456 457 488 
          488 457 458 489 
          489 458 459 490 
          490 459 460 491 
          491 460 461 492 
          492 461 462 493 
          493 462 463 494 
          494 463 464 495 
          496 465 466 497 
          497 466 467 498 
          498 467 468 499 
          499 468 469 500 
          500 469 470 501 
          501 470 471 502 
          502 471 472 503 
          503 472 473 504 
          504 473 474 505 
          505 474 475 506 
          506 475 476 507 
          507 476 477 508 
          508 477 478 509 
          509 478 479 510 
          510 479 480 511 
          511 480 481 512 
          512 481 482 513 
          513 482 483 514 
          514 483 484 515 
          515 484 485 516 
          516 485 486 517 
          517 486 487 518 
          518 487 488 519 
          519 488 489 520 
          520 489 490 521 
          521 490 491 522 
          522 491 492 523 
          523 492 493 524 
          524 493 494 525 
          525 494 495 526 
        </DataArray>
        <DataArray type="Int64" Name="offsets" format="ascii">
          4 8 12 16 20 24 28 32 36 40 44 48 52 56 60 64 68 72 76 80 84 88 92 96 100 104 108 112 116 120 124 128 132 136 140 144 148 152 156 160 164 168 172 176 180 184 188 192 196 200 204 208 212 216 220 224 228 232 236 240 244 248 252 256 260 264 268 272 276 280 284 288 292 296 300 304 308 312 316 320 324 328 332 336 340 344 348 352 356 360 364 368 372 376 380 384 388 392 396 400 404 408 412 416 420 424 428 432 436 440 444 448 452 456 460 464 468 472 476 480 484 488 492 496 500 504 508 512 516 520 524 528 532 536 540 544 548 552 556 560 564 568 572 576 580 584 588 592 596 600 604 608 612 616 620 624 628 632 636 640 644 648 652 656 660 664 668 672 676 680 684 688 692 696 700 704 708 712 716 720 724 728 732 736 740 744 748 752 756 760 764 768 772 776 780 784 788 792 796 800 804 808 812 816 820 824 828 832 836 840 844 848 852 856 860 864 868 872 876 880 884 888 892 896 900 904 908 912 916 920 924 928 932 936 940 944 948 952 956 960 964 968 972 976 980 984 988 992 996 1000 1004 1008 1012 1016 1020 1024 1028 1032 1036 1040 1044 1048 1052 1056 1060 1064 1068 1072 1076 1080 1084 1088 1092 1096 1100 1104 1108 1112 1116 1120 1124 1128 1132 1136 1140 1144 1148 1152 1156 1160 1164 1168 1172 1176 1180 1184 1188 1192 1196 1200 1204 1208 1212 1216 1220 1224 1228 1232 1236 1240 1244 1248 1252 1256 1260 1264 1268 1272 1276 1280 1284 1288 1292 1296 1300 1304 1308 1312 1316 1320 1324 1328 1332 1336 1340 1344 1348 1352 1356 1360 1364 1368 1372 1376 1380 1384 1388 1392 1396 1400 1404 1408 1412 1416 1420 1424 1428 1432 1436 1440 1444 1448 1452 1456 1460 1464 1468 1472 1476 1480 1484 1488 1492 1496 1500 1504 1508 1512 1516 1520 1524 1528 1532 1536 1540 1544 1548 1552 1556 1560 1564 1568 1572 1576 1580 1584 1588 1592 1596 1600 1604 1608 1612 1616 1620 1624 1628 1632 1636 1640 1644 1648 1652 1656 1660 1664 1668 1672 1676 1680 1684 1688 1692 1696 1700 1704 1708 1712 1716 1720 1724 1728 1732 1736 1740 1744 1748 1752 1756 1760 1764 1768 1772 1776 1780 1784 1788 1792 1796 1800 1804 1808 1812 1816 1820 1824 1828 1832 1836 1840 1844 1848 1852 1856 1860 1864 1868 1872 1876 1880 1884 1888 1892 1896 1900 1904 1908 1912 1916 1920 
        </DataArray>
        <DataArray type="UInt8" Name="types" format="ascii">
          9 9 9 9 9 9 9 9 9 9 9 9 9 9 9 9 9 9 9 9 9 9 9 9 9 9 9 9 9 9 9 9 9 9 9 9 9 9 9 9 9 9 9 9 9 9 9 9 9 9 9 9 9 9 9 9 9 9 9 9 9 9 9 9 9 9 9 9 9 9 9 9 9 9 9 9 9 9 9 9 9 9 9 9 9 9 9 9 9 9 9 9 9 9 9 9 9 9 9 9 9 9 9 9 9 9 9 9 9 9 9 9 9 9 9 9 9 9 9 9 9 9 9 9 9 9 9 9 9 9 9 9 9 9 9 9 9 9 9 9 9 9 9 9 9 9 9 9 9 9 9 9 9 9 9 9 9 9 9 9 9 9 9 9 9 9 9 9 9 9 9 9 9 9 9 9 9 9 9 9 9 9 9 9 9 9 9 9 9 9 9 9 9 9 9 9 9 9 9 9 9 9 9 9 9 9 9 9 9 9 9 9 9 9 9 9 9 9 9 9 9 9 9 9 9 9 9 9 9 9 9 9 9 9 9 9 9 9 9 9 9 9 9 9 9 9 9 9 9 9 9 9 9 9 9 9 9 9 9 9 9 9 9 9 9 9 9 9 9 9 9 9 9 9 9 9 9 9 9 9 9 9 9 9 9 9 9 9 9 9 9 9 9 9 9 9 9 9 9 9 9 9 9 9 9 9 9 9 9 9 9 9 9 9 9 9 9 9 9 9 9 9 9 9 9 9 9 9 9 9 9 9 9 9 9 9 9 9 9 9 9 9 9 9 9 9 9 9 9 9 9 9 9 9 9 9 9 9 9 9 9 9 9 9 9 9 9 9 9 9 9 9 9 9 9 9 9 9 9 9 9 9 9 9 9 9 9 9 9 9 9 9 9 9 9 9 9 9 9 9 9 9 9 9 9 9 9 9 9 9 9 9 9 9 9 9 9 9 9 9 9 9 9 9 9 9 9 9 9 9 9 9 9 9 9 9 9 9 9 9 9 9 9 9 9 9 9 9 9 9 9 9 9 9 9 9 9 9 9 9 9 9 9 9 9 9 9 9 9 9 9 9 9 9 9 9 9 9 9 9 
        </DataArray>
      </Cells>
      <PointData Scalars="DISPLACEMENT_X1">
        <DataArray type="Float64" Name="STRESS_1" format="ascii">
          8.703974430313e+07 8.261453117651e+07 7.859543136169e+07 7.493555047883e+07 7.159363881493e+07 6.853398226863e+07 6.572568944910e+07 6.314196824142e+07 6.075949947131e+07 5.855791290392e+07 5.651935150503e+07 5.462810842419e+07 5.287032388312e+07 5.123373034992e+07 4.970743816451e+07 4.828175371219e+07 4.694802546277e+07 4.569851203103e+07 4.452627001058e+07 4.342505688246e+07 4.238924815983e+07 4.141376489404e+07 4.049401172777e+07 3.962582189259e+07 3.880541003520e+07 3.802932944579e+07 3.729443451577e+07 3.659784473538e+07 3.593691024562e+07 3.530917301269e+07 3.471229001949e+07 8.703974041523e+07 8.261452981333e+07 7.859543042192e+07 7.493554961906e+07 7.159363798172e+07 6.853398145123e+07 6.572568864444e+07 6.314196743293e+07 6.075949867729e+07 5.855791212517e+07 5.651935072095e+07 5.462810764911e+07 5.287032312212e+07 5.123372959455e+07 4.970743739662e+07 4.828175297234e+07 4.694802471721e+07 4.569851129392e+07 4.452626926197e+07 4.342505615677e+07 4.238924741026e+07 4.141376415536e+07 4.049401097735e+07 3.962582115442e+07 3.880540927174e+07 3.802932871241e+07 3.729443377122e+07 3.659784403851e+07 3.593690958048e+07 3.530917249109e+07 3.471228961244e+07 8.703974299409e+07 8.261453201500e+07 7.859543231960e+07 7.493555127375e+07 7.159363939833e+07 6.853398267399e+07 6.572568968992e+07 6.314196834046e+07 6.075949942657e+07 5.855791276523e+07 5.651935123661e+07 5.462810807023e+07 5.287032341468e+07 5.123372981580e+07 4.970743751188e+07 4.828175301288e+07 4.694802465027e+07 4.569851117770e+07 4.452626904431e+07 4.342505586914e+07 4.238924703290e+07 4.141376372514e+07 4.049401044183e+07 3.962582056260e+07 3.880540860308e+07 3.802932796084e+07 3.729443294100e+07 3.659784314237e+07 3.593690860758e+07 3.530917142616e+07 3.471228847642e+07 8.703974708751e+07 8.261453554371e+07 7.859543535811e+07 7.493555390083e+07 7.159364166477e+07 6.853398463535e+07 6.572569137786e+07 6.314196977848e+07 6.075950065763e+07 5.855791379686e+07 5.651935208457e+07 5.462810874174e+07 5.287032393583e+07 5.123373017321e+07 4.970743772032e+07 4.828175309017e+07 4.694802459143e+07 4.569851098601e+07 4.452626871588e+07 4.342505543070e+07 4.238924644600e+07 4.141376303723e+07 4.049400960290e+07 3.962581962930e+07 3.880540750730e+07 3.802932678611e+07 3.729443159185e+07 3.659784171090e+07 3.593690700496e+07 3.530916973448e+07 3.471228662810e+07 8.703975245538e+07 8.261454016086e+07 7.859543935625e+07 7.493555732403e+07 7.159364465690e+07 6.853398720728e+07 6.572569359889e+07 6.314197166561e+07 6.075950229018e+07 5.855791515166e+07 5.651935320578e+07 5.462810962953e+07 5.287032464861e+07 5.123373064938e+07 4.970743803787e+07 4.828175320159e+07 4.694802456170e+07 4.569851072534e+07 4.452626834368e+07 4.342505484334e+07 4.238924573541e+07 4.141376209260e+07 4.049400857235e+07 3.962581835305e+07 3.880540612412e+07 3.802932517074e+07 3.729442987508e+07 3.659783974895e+07 3.593690492122e+07 3.530916744074e+07 3.471228417124e+07 8.703975874997e+07 8.261454556137e+07 7.859544398547e+07 7.493556137464e+07 7.159364813553e+07 6.853399022101e+07 6.572569618681e+07 6.314197393333e+07 6.075950417506e+07 5.855791675304e+07 5.651935452755e+07 5.462811073698e+07 5.287032543954e+07 5.123373127512e+07 4.970743841561e+07 4.828175339043e+07 4.694802446978e+07 4.569851052724e+07 4.452626786339e+07 4.342505420282e+07 4.238924484815e+07 4.141376108970e+07 4.049400727069e+07 3.962581692510e+07 3.880540444856e+07 3.802932334133e+07 3.729442777524e+07 3.659783749897e+07 3.593690243377e+07 3.530916473279e+07 3.471228122199e+07 8.703976548709e+07 8.261455134830e+07 7.859544899779e+07 7.493556567869e+07 7.159365189268e+07 6.853399347138e+07 6.572569901188e+07 6.314197632036e+07 6.075950625230e+07 5.855791848465e+07 5.651935597398e+07 5.462811187425e+07 5.287032637373e+07 5.123373190743e+07 4.970743885602e+07 4.828175354983e+07 4.694802446892e+07 4.569851024128e+07 4.452626740817e+07 4.342505349633e+07 4.238924398604e+07 4.141375993459e+07 4.049400596475e+07 3.962581536301e+07 3.880540268276e+07 3.802932132408e+07 3.729442557090e+07 3.659783504014e+07 3.593689973178e+07 3.530916181763e+07 3.471227805849e+07 8.703977217324e+07 8.261455709377e+07 7.859545397704e+07 7.493557002266e+07 7.159365563738e+07 6.853399673460e+07 6.572570182523e+07 6.314197875206e+07 6.075950830713e+07 5.855792024131e+07 5.651935740795e+07 5.462811304610e+07 5.287032726403e+07 5.123373258197e+07 4.970743924511e+07 4.828175375176e+07 4.694802440924e+07 4.569850999124e+07 4.452626691008e+07 4.342505282174e+07 4.238924306392e+07 4.141375883889e+07 4.049400461854e+07 3.962581382458e+07 3.880540092422e+07 3.802931933652e+07 3.729442335675e+07 3.659783260341e+07 3.593689707120e+07 3.530915889329e+07 3.471227489406e+07 8.703977833451e+07 8.261456242521e+07 7.859545861111e+07 7.493557405179e+07 7.159365915594e+07 6.853399978128e+07 6.572570447229e+07 6.314198102784e+07 6.075951025236e+07 5.855792186748e+07 5.651935875998e+07 5.462811412896e+07 5.287032810971e+07 5.123373316576e+07 4.970743962757e+07 4.828175390852e+07 4.694802436258e+07 4.569850972437e+07 4.452626647823e+07 4.342505215821e+07 4.238924221496e+07 4.141375779138e+07 4.049400339211e+07 3.962581238080e+07 3.880539927989e+07 3.802931751098e+07 3.729442131512e+07 3.659783034903e+07 3.593689460979e+07 3.530915624193e+07 3.471227200049e+07 8.703978356020e+07 8.261456699923e+07 7.859546262205e+07 7.493557754521e+07 7.159366220271e+07 6.853400246423e+07 6.572570678831e+07 6.314198301977e+07 6.075951196260e+07 5.855792330578e+07 5.651935994331e+07 5.462811507397e+07 5.287032882926e+07 5.123373368692e+07 4.970743993481e+07 4.828175403279e+07 4.694802430743e+07 4.569850948235e+07 4.452626606091e+07 4.342505159070e+07 4.238924146129e+07 4.141375687571e+07 4.049400231526e+07 3.962581113948e+07 3.880539787460e+07 3.802931594066e+07 3.729441958030e+07 3.659782844471e+07 3.593689253366e+07 3.530915399785e+07 3.471226958987e+07 8.703978767326e+07 8.261457059921e+07 7.859546579356e+07 7.493558035667e+07 7.159366468254e+07 6.853400461654e+07 6.572570865865e+07 6.314198465673e+07 6.075951336072e+07 5.855792446439e+07 5.651936091056e+07 5.462811584963e+07 5.287032940389e+07 5.123373409814e+07 4.970744017943e+07 4.828175411769e+07 4.694802424907e+07 4.569850928134e+07 4.452626571269e+07 4.342505111110e+07 4.238924084429e+07 4.141375613470e+07 4.049400144244e+07 3.962581014460e+07 3.880539675818e+07 3.802931470281e+07 3.729441822240e+07 3.659782697823e+07 3.593689094649e+07 3.530915229057e+07 3.471226777626e+07 8.703979046854e+07 8.261457314044e+07 7.859546808734e+07 7.493558240213e+07 7.159366647359e+07 6.853400620592e+07 6.572571007346e+07 6.314198585880e+07 6.075951437757e+07 5.855792534417e+07 5.651936163929e+07 5.462811640869e+07 5.287032983111e+07 5.123373442402e+07 4.970744036832e+07 4.828175416436e+07 4.694802421146e+07 4.569850913794e+07 4.452626544170e+07 4.342505074478e+07 4.238924039827e+07 4.141375558669e+07 4.049400079797e+07 3.962580942384e+07 3.880539597134e+07 3.802931382364e+07 3.729441726503e+07 3.659782596894e+07 3.593688986964e+07 3.530915113476e+07 3.471226657430e+07 8.703979208765e+07 8.261457464886e+07 7.859546946046e+07 7.493558366911e+07 7.159366762580e+07 6.853400722556e+07 6.572571096990e+07 6.314198665512e+07 6.075951506433e+07 5.855792591928e+07 5.651936211391e+07 5.462811679819e+07 5.287033013805e+07 5.123373462272e+07 4.970744049132e+07 4.828175422582e+07 4.694802417617e+07 4.569850901861e+07 4.452626527320e+07 4.342505050464e+07 4.238924009097e+07 4.141375522072e+07 4.049400039321e+07 3.962580897504e+07 3.880539546934e+07 3.802931328817e+07 3.729441671664e+07 3.659782537580e+07 3.593688925411e+07 3.530915051772e+07 3.471226594169e+07 8.703979260455e+07 8.261457521609e+07 7.859547003142e+07 7.493558420479e+07 7.159366816283e+07 6.853400773448e+07 6.572571142949e+07 6.314198707496e+07 6.075951544591e+07 5.855792624912e+07 5.651936237922e+07 5.462811702789e+07 5.287033031507e+07 5.123373473485e+07 4.970744056691e+07 4.828175425951e+07 4.694802414916e+07 4.569850896213e+07 4.452626519097e+07 4.342505037898e+07 4.238923994142e+07 4.141375506082e+07 4.049400021518e+07 3.962580876726e+07 3.880539526091e+07 3.802931308456e+07 3.729441649924e+07 3.659782515762e+07 3.593688905276e+07 3.530915033248e+07 3.471226575528e+07 8.703979218725e+07 8.261457490968e+07 7.859546982934e+07 7.493558411109e+07 7.159366818362e+07 6.853400783000e+07 6.572571155970e+07 6.314198723767e+07 6.075951561570e+07 5.855792639449e+07 5.651936251372e+07 5.462811714428e+07 5.287033039586e+07 5.123373478669e+07 4.970744059743e+07 4.828175426129e+07 4.694802412943e+07 4.569850893695e+07 4.452626514966e+07 4.342505034113e+07 4.238923991042e+07 4.141375503514e+07 4.049400020181e+07 3.962580878221e+07 3.880539529246e+07 3.802931314480e+07 3.729441658339e+07 3.659782527159e+07 3.593688919400e+07 3.530915049498e+07 3.471226594341e+07 8.703979095422e+07 8.261457345936e+07 7.859546890883e+07 7.493558363612e+07 7.159366794062e+07 6.853400775670e+07 6.572571160191e+07 6.314198729158e+07 6.075951567093e+07 5.855792647857e+07 5.651936257688e+07 5.462811716473e+07 5.287033041409e+07 5.123373479288e+07 4.970744056803e+07 4.828175421391e+07 4.694802409063e+07 4.569850888529e+07 4.452626508624e+07 4.342505030045e+07 4.238923988842e+07 4.141375503056e+07 4.049400023801e+07 3.962580888319e+07 3.880539545247e+07 3.802931338450e+07 3.729441693785e+07 3.659782572376e+07 3.593688971703e+07 3.530915102492e+07 3.471226633647e+07 8.703978893295e+07 8.261457366746e+07 7.859546986995e+07 7.493558482065e+07 7.159366920579e+07 6.853400899099e+07 6.572571274733e+07 6.314198840404e+07 6.075951674111e+07 5.855792744780e+07 5.651936349682e+07 5.462811806172e+07 5.287033123007e+07 5.123373555261e+07 4.970744130823e+07 4.828175490744e+07 4.694802472758e+07 4.569850949936e+07 4.452626568789e+07 4.342505085516e+07 4.238924042246e+07 4.141375555969e+07 4.049400075547e+07 3.962580938418e+07 3.880539598307e+07 3.802931395569e+07 3.729441756646e+07 3.659782650169e+07 3.593689076290e+07 3.530915256041e+07 3.471226890773e+07 
        </DataArray>
        <DataArray type="Float64" Name="STRESS_2" format="ascii">
          1.046699402760e+07 1.046309864449e+07 1.045679700464e+07 1.045067884620e+07 1.044503508636e+07 1.043988495781e+07 1.043518910009e+07 1.043089965615e+07 1.042697181847e+07 1.042336602105e+07 1.042004777158e+07 1.041698696349e+07 1.041415743949e+07 1.041153620385e+07 1.040910314665e+07 1.040684045300e+07 1.040473249872e+07 1.040276527719e+07 1.040092647783e+07 1.039920492337e+07 1.039759075206e+07 1.039607476751e+07 1.039464867013e+07 1.039330414270e+07 1.039203269468e+07 1.039082395775e+07 1.038966380810e+07 1.038852940013e+07 1.038738112198e+07 1.038614572224e+07 1.038469078694e+07 1.046699428268e+07 1.046309887399e+07 1.045679722209e+07 1.045067903466e+07 1.044503524876e+07 1.043988510816e+07 1.043518923695e+07 1.043089976015e+07 1.042697192083e+07 1.042336611338e+07 1.042004784187e+07 1.041698702430e+07 1.041415749482e+07 1.041153624306e+07 1.040910316739e+07 1.040684047275e+07 1.040473250797e+07 1.040276527551e+07 1.040092645816e+07 1.039920491363e+07 1.039759071525e+07 1.039607473458e+07 1.039464862325e+07 1.039330409835e+07 1.039203262148e+07 1.039082389456e+07 1.038966372080e+07 1.038852931735e+07 1.038738100980e+07 1.038614563396e+07 1.038469067139e+07 1.046699505695e+07 1.046309955720e+07 1.045679783461e+07 1.045067959253e+07 1.044503573779e+07 1.043988554028e+07 1.043518961340e+07 1.043090010756e+07 1.042697220302e+07 1.042336637447e+07 1.042004805442e+07 1.041698721470e+07 1.041415762393e+07 1.041153636469e+07 1.040910323706e+07 1.040684053155e+07 1.040473250926e+07 1.040276528020e+07 1.040092641402e+07 1.039920485142e+07 1.039759061809e+07 1.039607463340e+07 1.039464847186e+07 1.039330393829e+07 1.039203243526e+07 1.039082367700e+07 1.038966347535e+07 1.038852905653e+07 1.038738072590e+07 1.038614531065e+07 1.038469033513e+07 1.046699628596e+07 1.046310066012e+07 1.045679881628e+07 1.045068047305e+07 1.044503651323e+07 1.043988623756e+07 1.043519022472e+07 1.043090063932e+07 1.042697267495e+07 1.042336678010e+07 1.042004839969e+07 1.041698749754e+07 1.041415785898e+07 1.041153654188e+07 1.040910335834e+07 1.040684061361e+07 1.040473253928e+07 1.040276526952e+07 1.040092634413e+07 1.039920476255e+07 1.039759045526e+07 1.039607446362e+07 1.039464822754e+07 1.039330369104e+07 1.039203210480e+07 1.039082335782e+07 1.038966305875e+07 1.038852865343e+07 1.038738023246e+07 1.038614482293e+07 1.038468977855e+07 1.046699789659e+07 1.046310209983e+07 1.045680011188e+07 1.045068159725e+07 1.044503754887e+07 1.043988713540e+07 1.043519103156e+07 1.043090132523e+07 1.042697330366e+07 1.042336730398e+07 1.042004885246e+07 1.041698785857e+07 1.041415818522e+07 1.041153674901e+07 1.040910353801e+07 1.040684069637e+07 1.040473260536e+07 1.040276520952e+07 1.040092629480e+07 1.039920459648e+07 1.039759029150e+07 1.039607416918e+07 1.039464796775e+07 1.039330329548e+07 1.039203172350e+07 1.039082285480e+07 1.038966258283e+07 1.038852804361e+07 1.038737963343e+07 1.038614413235e+07 1.038468904610e+07 1.046699978673e+07 1.046310378728e+07 1.045680158940e+07 1.045068295850e+07 1.044503872983e+07 1.043988819541e+07 1.043519194738e+07 1.043090218246e+07 1.042697399665e+07 1.042336792179e+07 1.042004936397e+07 1.041698832446e+07 1.041415848974e+07 1.041153704402e+07 1.040910371348e+07 1.040684083535e+07 1.040473259025e+07 1.040276523161e+07 1.040092616263e+07 1.039920445312e+07 1.039759002441e+07 1.039607392473e+07 1.039464755362e+07 1.039330289190e+07 1.039203120835e+07 1.039082232773e+07 1.038966192766e+07 1.038852739137e+07 1.038737888501e+07 1.038614332632e+07 1.038468816608e+07 1.046700180960e+07 1.046310558710e+07 1.045680321609e+07 1.045068437590e+07 1.044504001990e+07 1.043988933068e+07 1.043519297415e+07 1.043090303425e+07 1.042697478628e+07 1.042336857332e+07 1.042004992964e+07 1.041698876246e+07 1.041415889306e+07 1.041153730098e+07 1.040910394147e+07 1.040684092282e+07 1.040473267104e+07 1.040276516562e+07 1.040092607366e+07 1.039920424734e+07 1.039758980972e+07 1.039607355924e+07 1.039464718725e+07 1.039330241925e+07 1.039203068511e+07 1.039082171275e+07 1.038966128164e+07 1.038852665351e+07 1.038737807608e+07 1.038614246797e+07 1.038468721797e+07 1.046700381970e+07 1.046310737098e+07 1.045680481858e+07 1.045068583120e+07 1.044504128975e+07 1.043989047942e+07 1.043519397594e+07 1.043090393148e+07 1.042697554079e+07 1.042336924677e+07 1.042005047804e+07 1.041698923023e+07 1.041415925097e+07 1.041153760805e+07 1.040910411876e+07 1.040684106593e+07 1.040473269763e+07 1.040276514642e+07 1.040092594980e+07 1.039920408621e+07 1.039758954062e+07 1.039607326186e+07 1.039464678177e+07 1.039330196848e+07 1.039203016479e+07 1.039082111880e+07 1.038966061852e+07 1.038852592751e+07 1.038737728990e+07 1.038614158815e+07 1.038468627739e+07 1.046700566883e+07 1.046310903165e+07 1.045680631569e+07 1.045068717212e+07 1.044504250120e+07 1.043989154427e+07 1.043519492902e+07 1.043090476185e+07 1.042697627235e+07 1.042336986412e+07 1.042005101002e+07 1.041698967053e+07 1.041415961895e+07 1.041153787075e+07 1.040910432630e+07 1.040684118864e+07 1.040473274782e+07 1.040276511294e+07 1.040092587715e+07 1.039920391925e+07 1.039758931890e+07 1.039607296935e+07 1.039464644551e+07 1.039330155043e+07 1.039202968192e+07 1.039082059109e+07 1.038966001755e+07 1.038852525516e+07 1.038737655529e+07 1.038614081395e+07 1.038468540764e+07 1.046700723792e+07 1.046311045627e+07 1.045680761368e+07 1.045068833567e+07 1.044504354271e+07 1.043989250050e+07 1.043519576478e+07 1.043090549404e+07 1.042697692030e+07 1.042337042843e+07 1.042005148930e+07 1.041699007305e+07 1.041415994383e+07 1.041153813561e+07 1.040910451021e+07 1.040684131395e+07 1.040473281997e+07 1.040276511157e+07 1.040092581225e+07 1.039920381039e+07 1.039758913765e+07 1.039607273653e+07 1.039464616144e+07 1.039330121040e+07 1.039202929050e+07 1.039082014153e+07 1.038965951871e+07 1.038852470247e+07 1.038737594660e+07 1.038614014798e+07 1.038468468639e+07 1.046700847344e+07 1.046311157053e+07 1.045680862982e+07 1.045068927236e+07 1.044504440159e+07 1.043989325692e+07 1.043519644282e+07 1.043090612052e+07 1.042697746898e+07 1.042337088986e+07 1.042005190545e+07 1.041699042334e+07 1.041416022394e+07 1.041153837103e+07 1.040910469021e+07 1.040684143686e+07 1.040473289591e+07 1.040276513886e+07 1.040092578783e+07 1.039920373922e+07 1.039758901721e+07 1.039607257449e+07 1.039464594759e+07 1.039330095982e+07 1.039202899780e+07 1.039081980809e+07 1.038965913920e+07 1.038852428800e+07 1.038737548454e+07 1.038613963993e+07 1.038468414378e+07 1.046700931644e+07 1.046311235332e+07 1.045680936326e+07 1.045068995070e+07 1.044504500225e+07 1.043989381921e+07 1.043519697620e+07 1.043090657939e+07 1.042697787368e+07 1.042337127185e+07 1.042005224299e+07 1.041699070071e+07 1.041416045319e+07 1.041153858605e+07 1.040910485137e+07 1.040684153906e+07 1.040473299128e+07 1.040276520007e+07 1.040092578799e+07 1.039920371344e+07 1.039758896386e+07 1.039607247962e+07 1.039464581577e+07 1.039330079777e+07 1.039202881589e+07 1.039081958369e+07 1.038965887625e+07 1.038852401591e+07 1.038737518052e+07 1.038613929319e+07 1.038468378545e+07 1.046700979985e+07 1.046311282076e+07 1.045680979395e+07 1.045069036179e+07 1.044504539265e+07 1.043989417759e+07 1.043519730196e+07 1.043090689523e+07 1.042697816745e+07 1.042337152969e+07 1.042005247330e+07 1.041699091039e+07 1.041416064756e+07 1.041153873406e+07 1.040910498067e+07 1.040684166116e+07 1.040473306831e+07 1.040276524604e+07 1.040092583111e+07 1.039920372789e+07 1.039758895120e+07 1.039607244111e+07 1.039464575968e+07 1.039330072322e+07 1.039202870769e+07 1.039081945859e+07 1.038965875230e+07 1.038852385162e+07 1.038737500611e+07 1.038613911773e+07 1.038468359242e+07 1.046700995482e+07 1.046311300255e+07 1.045680996641e+07 1.045069051393e+07 1.044504556695e+07 1.043989434630e+07 1.043519746162e+07 1.043090705413e+07 1.042697832627e+07 1.042337168377e+07 1.042005260727e+07 1.041699104963e+07 1.041416077776e+07 1.041153883556e+07 1.040910508287e+07 1.040684175435e+07 1.040473313322e+07 1.040276530796e+07 1.040092589055e+07 1.039920376258e+07 1.039758897476e+07 1.039607246500e+07 1.039464577105e+07 1.039330070705e+07 1.039202869386e+07 1.039081943526e+07 1.038965871344e+07 1.038852380424e+07 1.038737495673e+07 1.038613907250e+07 1.038468353291e+07 1.046700983288e+07 1.046311290396e+07 1.045680988751e+07 1.045069045110e+07 1.044504553760e+07 1.043989434016e+07 1.043519746263e+07 1.043090708351e+07 1.042697837480e+07 1.042337173282e+07 1.042005266906e+07 1.041699112045e+07 1.041416084249e+07 1.041153890154e+07 1.040910515122e+07 1.040684181795e+07 1.040473319186e+07 1.040276536977e+07 1.040092594520e+07 1.039920381744e+07 1.039758903836e+07 1.039607251926e+07 1.039464582686e+07 1.039330076868e+07 1.039202874064e+07 1.039081949213e+07 1.038965876085e+07 1.038852385749e+07 1.038737501198e+07 1.038613911908e+07 1.038468358934e+07 1.046700949342e+07 1.046311244922e+07 1.045680951795e+07 1.045069019415e+07 1.044504531906e+07 1.043989419661e+07 1.043519739623e+07 1.043090702248e+07 1.042697833341e+07 1.042337173718e+07 1.042005268165e+07 1.041699112911e+07 1.041416087212e+07 1.041153894497e+07 1.040910518490e+07 1.040684184637e+07 1.040473324103e+07 1.040276541846e+07 1.040092598486e+07 1.039920388193e+07 1.039758910898e+07 1.039607259257e+07 1.039464591078e+07 1.039330087647e+07 1.039202885522e+07 1.039081961503e+07 1.038965891202e+07 1.038852401518e+07 1.038737517002e+07 1.038613926608e+07 1.038468370464e+07 1.046700731569e+07 1.046311147229e+07 1.045680902648e+07 1.045068990540e+07 1.044504517931e+07 1.043989410931e+07 1.043519730867e+07 1.043090698848e+07 1.042697832595e+07 1.042337170971e+07 1.042005267428e+07 1.041699114600e+07 1.041416087487e+07 1.041153894200e+07 1.040910520232e+07 1.040684187013e+07 1.040473324612e+07 1.040276543441e+07 1.040092601984e+07 1.039920390272e+07 1.039758913687e+07 1.039607264603e+07 1.039464597092e+07 1.039330093791e+07 1.039202895459e+07 1.039081974075e+07 1.038965907462e+07 1.038852425582e+07 1.038737551923e+07 1.038613977832e+07 1.038468447665e+07 
        </DataArray>
        <DataArray type="Float64" Name="STRESS_3" format="ascii">
          -5.214976421114e+07 -4.773753569489e+07 -4.373944134623e+07 -4.009995432482e+07 -3.677685519371e+07 -3.373436574261e+07 -3.094172578215e+07 -2.837230272093e+07 -2.600292674306e+07 -2.381335950042e+07 -2.178585893309e+07 -1.990481854590e+07 -1.815646575148e+07 -1.652860967041e+07 -1.501042767566e+07 -1.359228553552e+07 -1.226558380037e+07 -1.102262777374e+07 -9.856515084463e+06 -8.761040471222e+06 -7.730612319638e+06 -6.760182335679e+06 -5.845182827325e+06 -4.981474750255e+06 -4.165301052921e+06 -3.393249586615e+06 -2.662221822123e+06 -1.969413401624e+06 -1.312306505672e+06 -6.886872718777e+05 -9.665406301922e+04 -5.214975947298e+07 -4.773753356669e+07 -4.373943968162e+07 -4.009995283685e+07 -3.677685381917e+07 -3.373436442403e+07 -3.094172452128e+07 -2.837230156575e+07 -2.600292560785e+07 -2.381335841389e+07 -2.178585791473e+07 -1.990481756811e+07 -1.815646480604e+07 -1.652860878436e+07 -1.501042683865e+07 -1.359228472983e+07 -1.226558302399e+07 -1.102262704223e+07 -9.856514401423e+06 -8.761039778009e+06 -7.730611692767e+06 -6.760181706768e+06 -5.845182233192e+06 -4.981474159938e+06 -4.165300533477e+06 -3.393249063873e+06 -2.662221368548e+06 -1.969412980676e+06 -1.312306214479e+06 -6.886870445558e+05 -9.665404113436e+04 -5.214975947093e+07 -4.773753349099e+07 -4.373943953756e+07 -4.009995263198e+07 -3.677685360571e+07 -3.373436420640e+07 -3.094172431192e+07 -2.837230131526e+07 -2.600292541650e+07 -2.381335818365e+07 -2.178585772189e+07 -1.990481735457e+07 -1.815646466826e+07 -1.652860860017e+07 -1.501042672167e+07 -1.359228457437e+07 -1.226558295273e+07 -1.102262691039e+07 -9.856514330901e+06 -8.761039697758e+06 -7.730611639268e+06 -6.760181613795e+06 -5.845182202298e+06 -4.981474101631e+06 -4.165300485535e+06 -3.393249037505e+06 -2.662221356505e+06 -1.969412953941e+06 -1.312306187894e+06 -6.886870573332e+05 -9.665402599399e+04 -5.214975946763e+07 -4.773753334332e+07 -4.373943930385e+07 -4.009995232399e+07 -3.677685328735e+07 -3.373436384348e+07 -3.094172396212e+07 -2.837230098074e+07 -2.600292507447e+07 -2.381335786320e+07 -2.178585741892e+07 -1.990481708327e+07 -1.815646440589e+07 -1.652860836694e+07 -1.501042652587e+07 -1.359228437815e+07 -1.226558279383e+07 -1.102262675429e+07 -9.856514235431e+06 -8.761039555525e+06 -7.730611595148e+06 -6.760181491829e+06 -5.845182177762e+06 -4.981473992497e+06 -4.165300491289e+06 -3.393248926706e+06 -2.662221396003e+06 -1.969412866142e+06 -1.312306230086e+06 -6.886869913954e+05 -9.665403293006e+04 -5.214975946676e+07 -4.773753316144e+07 -4.373943898331e+07 -4.009995199986e+07 -3.677685282735e+07 -3.373436342259e+07 -3.094172349369e+07 -2.837230058153e+07 -2.600292461130e+07 -2.381335747174e+07 -2.178585703093e+07 -1.990481676763e+07 -1.815646403123e+07 -1.652860815268e+07 -1.501042624450e+07 -1.359228421369e+07 -1.226558254385e+07 -1.102262669359e+07 -9.856514027683e+06 -8.761039521756e+06 -7.730611430421e+06 -6.760181528683e+06 -5.845182013184e+06 -4.981474034778e+06 -4.165300379121e+06 -3.393248988072e+06 -2.662221265644e+06 -1.969412936904e+06 -1.312306143136e+06 -6.886869995621e+05 -9.665401756443e+04 -5.214975946087e+07 -4.773753293710e+07 -4.373943868746e+07 -4.009995151296e+07 -3.677685236943e+07 -3.373436290297e+07 -3.094172302889e+07 -2.837229999180e+07 -2.600292418623e+07 -2.381335701374e+07 -2.178585664766e+07 -1.990481632212e+07 -1.815646380708e+07 -1.652860779505e+07 -1.501042603735e+07 -1.359228393925e+07 -1.226558250228e+07 -1.102262642189e+07 -9.856513987946e+06 -8.761039359101e+06 -7.730611433457e+06 -6.760181340587e+06 -5.845182091956e+06 -4.981473952107e+06 -4.165300420721e+06 -3.393248915567e+06 -2.662221349708e+06 -1.969412861080e+06 -1.312306150399e+06 -6.886869783989e+05 -9.665400171044e+04 -5.214975945508e+07 -4.773753272464e+07 -4.373943827748e+07 -4.009995109235e+07 -3.677685182635e+07 -3.373436236910e+07 -3.094172243137e+07 -2.837229953952e+07 -2.600292363135e+07 -2.381335657358e+07 -2.178585620851e+07 -1.990481599938e+07 -1.815646339687e+07 -1.652860757085e+07 -1.501042571778e+07 -1.359228380708e+07 -1.226558223210e+07 -1.102262635589e+07 -9.856513829299e+06 -8.761039338529e+06 -7.730611286976e+06 -6.760181403780e+06 -5.845182007237e+06 -4.981473965501e+06 -4.165300399065e+06 -3.393248948240e+06 -2.662221298768e+06 -1.969412861766e+06 -1.312306144831e+06 -6.886869243992e+05 -9.665399858063e+04 -5.214975944092e+07 -4.773753252383e+07 -4.373943791510e+07 -4.009995058532e+07 -3.677685133822e+07 -3.373436180321e+07 -3.094172190543e+07 -2.837229898047e+07 -2.600292317115e+07 -2.381335608541e+07 -2.178585581449e+07 -1.990481561200e+07 -1.815646309411e+07 -1.652860722180e+07 -1.501042551590e+07 -1.359228353200e+07 -1.226558208382e+07 -1.102262616982e+07 -9.856513744090e+06 -8.761039201046e+06 -7.730611261856e+06 -6.760181299367e+06 -5.845182012627e+06 -4.981473929661e+06 -4.165300374929e+06 -3.393248940520e+06 -2.662221295013e+06 -1.969412845035e+06 -1.312306104879e+06 -6.886869327708e+05 -9.665396942031e+04 -5.214975943840e+07 -4.773753231972e+07 -4.373943755881e+07 -4.009995014472e+07 -3.677685081861e+07 -3.373436130039e+07 -3.094172137555e+07 -2.837229848832e+07 -2.600292267785e+07 -2.381335565377e+07 -2.178585539323e+07 -1.990481522719e+07 -1.815646271320e+07 -1.652860692992e+07 -1.501042520656e+07 -1.359228327974e+07 -1.226558186985e+07 -1.102262601455e+07 -9.856513554411e+06 -8.761039094045e+06 -7.730611151957e+06 -6.760181226872e+06 -5.845181907097e+06 -4.981473879372e+06 -4.165300340166e+06 -3.393248874001e+06 -2.662221256601e+06 -1.969412831830e+06 -1.312306092177e+06 -6.886868621073e+05 -9.665397502644e+04 -5.214975943381e+07 -4.773753214501e+07 -4.373943724311e+07 -4.009994975966e+07 -3.677685039367e+07 -3.373436079588e+07 -3.094172090569e+07 -2.837229803962e+07 -2.600292222827e+07 -2.381335521102e+07 -2.178585497899e+07 -1.990481483048e+07 -1.815646234982e+07 -1.652860656823e+07 -1.501042490077e+07 -1.359228298630e+07 -1.226558157419e+07 -1.102262577713e+07 -9.856513353395e+06 -8.761038889409e+06 -7.730611002468e+06 -6.760181087267e+06 -5.845181777130e+06 -4.981473771465e+06 -4.165300239604e+06 -3.393248802213e+06 -2.662221184585e+06 -1.969412769803e+06 -1.312306045006e+06 -6.886868379242e+05 -9.665396857101e+04 -5.214975942846e+07 -4.773753203077e+07 -4.373943702748e+07 -4.009994944879e+07 -3.677685001056e+07 -3.373436042679e+07 -3.094172051592e+07 -2.837229758833e+07 -2.600292179745e+07 -2.381335483152e+07 -2.178585455906e+07 -1.990481443849e+07 -1.815646199076e+07 -1.652860619470e+07 -1.501042454542e+07 -1.359228266149e+07 -1.226558126269e+07 -1.102262548515e+07 -9.856513086590e+06 -8.761038647042e+06 -7.730610786908e+06 -6.760180886390e+06 -5.845181617134e+06 -4.981473611866e+06 -4.165300098838e+06 -3.393248675837e+06 -2.662221091734e+06 -1.969412684888e+06 -1.312305998030e+06 -6.886868241482e+05 -9.665396366333e+04 -5.214975941376e+07 -4.773753196272e+07 -4.373943687647e+07 -4.009994923315e+07 -3.677684979941e+07 -3.373436014188e+07 -3.094172015279e+07 -2.837229726084e+07 -2.600292146532e+07 -2.381335443798e+07 -2.178585416264e+07 -1.990481407298e+07 -1.815646165381e+07 -1.652860580386e+07 -1.501042419709e+07 -1.359228236749e+07 -1.226558090718e+07 -1.102262513772e+07 -9.856512815069e+06 -8.761038366661e+06 -7.730610518750e+06 -6.760180654612e+06 -5.845181412066e+06 -4.981473431285e+06 -4.165299918379e+06 -3.393248544670e+06 -2.662221010865e+06 -1.969412582564e+06 -1.312305934562e+06 -6.886868241242e+05 -9.665395613738e+04 -5.214975942150e+07 -4.773753191300e+07 -4.373943681394e+07 -4.009994912981e+07 -3.677684965032e+07 -3.373435996693e+07 -3.094171996337e+07 -2.837229700434e+07 -2.600292117281e+07 -2.381335415364e+07 -2.178585386958e+07 -1.990481376355e+07 -1.815646131285e+07 -1.652860550920e+07 -1.501042388910e+07 -1.359228202195e+07 -1.226558061513e+07 -1.102262486514e+07 -9.856512502824e+06 -8.761038078331e+06 -7.730610253629e+06 -6.760180417020e+06 -5.845181194270e+06 -4.981473230958e+06 -4.165299777045e+06 -3.393248426197e+06 -2.662220875651e+06 -1.969412537064e+06 -1.312305900403e+06 -6.886867919536e+05 -9.665396697390e+04 -5.214975942180e+07 -4.773753187427e+07 -4.373943681007e+07 -4.009994915836e+07 -3.677684960633e+07 -3.373435991348e+07 -3.094171989077e+07 -2.837229689454e+07 -2.600292102501e+07 -2.381335396988e+07 -2.178585368831e+07 -1.990481352912e+07 -1.815646105587e+07 -1.652860528297e+07 -1.501042362401e+07 -1.359228174501e+07 -1.226558037175e+07 -1.102262460225e+07 -9.856512222486e+06 -8.761037837051e+06 -7.730610025543e+06 -6.760180177485e+06 -5.845180978358e+06 -4.981473077081e+06 -4.165299614696e+06 -3.393248300363e+06 -2.662220787789e+06 -1.969412476808e+06 -1.312305863661e+06 -6.886867574884e+05 -9.665397891492e+04 -5.214975941097e+07 -4.773753189648e+07 -4.373943687097e+07 -4.009994927408e+07 -3.677684972495e+07 -3.373436002947e+07 -3.094172001758e+07 -2.837229695931e+07 -2.600292103302e+07 -2.381335395176e+07 -2.178585361686e+07 -1.990481340946e+07 -1.815646092089e+07 -1.652860511489e+07 -1.501042342670e+07 -1.359228153479e+07 -1.226558015656e+07 -1.102262437104e+07 -9.856511998999e+06 -8.761037616332e+06 -7.730609782559e+06 -6.760179970958e+06 -5.845180778960e+06 -4.981472886598e+06 -4.165299490318e+06 -3.393248171046e+06 -2.662220713896e+06 -1.969412413288e+06 -1.312305820746e+06 -6.886867647161e+05 -9.665397894907e+04 -5.214975930950e+07 -4.773753196196e+07 -4.373943718234e+07 -4.009994965562e+07 -3.677685021042e+07 -3.373436043466e+07 -3.094172028115e+07 -2.837229721665e+07 -2.600292122621e+07 -2.381335402131e+07 -2.178585363805e+07 -1.990481340102e+07 -1.815646084037e+07 -1.652860497631e+07 -1.501042328503e+07 -1.359228139267e+07 -1.226557995387e+07 -1.102262415709e+07 -9.856511803360e+06 -8.761037360699e+06 -7.730609525134e+06 -6.760179721995e+06 -5.845180535410e+06 -4.981472628278e+06 -4.165299268384e+06 -3.393248001062e+06 -2.662220564443e+06 -1.969412339811e+06 -1.312305816945e+06 -6.886868046612e+05 -9.665398766380e+04 -5.214976454733e+07 -4.773753542651e+07 -4.373943978169e+07 -4.009995180266e+07 -3.677685194142e+07 -3.373436195997e+07 -3.094172171843e+07 -2.837229844245e+07 -2.600292232128e+07 -2.381335508211e+07 -2.178585458256e+07 -1.990481424172e+07 -1.815646164718e+07 -1.652860574593e+07 -1.501042396717e+07 -1.359228200702e+07 -1.226558057383e+07 -1.102262471801e+07 -9.856512288419e+06 -8.761037846104e+06 -7.730609966221e+06 -6.760180072930e+06 -5.845180852406e+06 -4.981472924493e+06 -4.165299467777e+06 -3.393248153203e+06 -2.662220651066e+06 -1.969412315623e+06 -1.312305698808e+06 -6.886866326882e+05 -9.665398556021e+04 
        </DataArray>
        <DataArray type="Float64" Name="STRESS_XX" format="ascii">
          -5.214975947829e+07 -4.773753358320e+07 -4.373943974406e+07 -4.009995290586e+07 -3.677685387767e+07 -3.373436450459e+07 -3.094172461156e+07 -2.837230161135e+07 -2.600292568956e+07 -2.381335849880e+07 -2.178585797960e+07 -1.990481763718e+07 -1.815646488448e+07 -1.652860884233e+07 -1.501042688396e+07 -1.359228477788e+07 -1.226558307465e+07 -1.102262707799e+07 -9.856514416897e+06 -8.761039830222e+06 -7.730611703779e+06 -6.760181743773e+06 -5.845182258571e+06 -4.981474204526e+06 -4.165300531378e+06 -3.393249092925e+06 -2.662221364768e+06 -1.969412997893e+06 -1.312306187053e+06 -6.886870846678e+05 -9.665403217299e+04 -5.081251582708e+07 -4.648519425490e+07 -4.256412435859e+07 -3.899476510772e+07 -3.573569920050e+07 -3.275183528864e+07 -3.001300553804e+07 -2.749309067844e+07 -2.516936739600e+07 -2.302198759309e+07 -2.103355121469e+07 -1.918875255818e+07 -1.747408452483e+07 -1.587759125698e+07 -1.438865867834e+07 -1.299783825191e+07 -1.169669626565e+07 -1.047768635459e+07 -9.334039143546e+06 -8.259668913677e+06 -7.249091925003e+06 -6.297357052356e+06 -5.399984726929e+06 -4.552915642241e+06 -3.752465303624e+06 -2.995287321065e+06 -2.278343293386e+06 -1.598883381836e+06 -9.544395327727e+05 -3.428426211960e+05 2.377680152515e+05 -4.685217431292e+07 -4.277630288163e+07 -3.908334491079e+07 -3.572167343787e+07 -3.265224612405e+07 -2.984200571334e+07 -2.726253855407e+07 -2.488924537925e+07 -2.270072577563e+07 -2.067828687842e+07 -1.880554168821e+07 -1.706807533225e+07 -1.545316708638e+07 -1.394955676667e+07 -1.254724834042e+07 -1.123734294590e+07 -1.001189797613e+07 -8.863805963473e+06 -7.786691790117e+06 -6.774823672861e+06 -5.823037158802e+06 -4.926669125996e+06 -4.081500911419e+06 -3.283709337784e+06 -2.529824637969e+06 -1.816695548057e+06 -1.141461322049e+06 -5.015338324010e+05 1.054078736352e+05 6.813999997731e+05 1.228182499830e+06 -4.042092837214e+07 -3.675338988233e+07 -3.343086568492e+07 -3.040646096184e+07 -2.764499005914e+07 -2.511669893133e+07 -2.279602259341e+07 -2.066083023181e+07 -1.869186940870e+07 -1.687232361651e+07 -1.518745070076e+07 -1.362428261945e+07 -1.217137535280e+07 -1.081859888916e+07 -9.556960359134e+06 -8.378453939015e+06 -7.275934124807e+06 -6.243006661443e+06 -5.273936200853e+06 -4.363566011358e+06 -3.507250065146e+06 -2.700792903714e+06 -1.940399559615e+06 -1.222630277301e+06 -5.443641678594e+05 9.723354836898e+04 7.047346199934e+05 1.280465029265e+06 1.826506457526e+06 2.344679691977e+06 2.836528185895e+06 -3.176592679521e+07 -2.864791221920e+07 -2.582390815528e+07 -2.325338832713e+07 -2.090635701437e+07 -1.875750595719e+07 -1.678510349585e+07 -1.497034099200e+07 -1.329685656611e+07 -1.175035904937e+07 -1.031831966344e+07 -8.989717644255e+06 -7.754826974994e+06 -6.605038838715e+06 -5.532710048908e+06 -4.531036990515e+06 -3.593946504610e+06 -2.716004605188e+06 -1.892336316121e+06 -1.118559564530e+06 -3.907251450550e+05 2.947320502621e+05 9.410379470648e+05 1.551115018661e+06 2.127615941697e+06 2.672948302643e+06 3.189296269500e+06 3.678631596596e+06 4.142715348323e+06 4.583077233193e+06 5.000997101819e+06 -2.121977603213e+07 -1.877135858534e+07 -1.655480338717e+07 -1.453734390922e+07 -1.269530904829e+07 -1.100880706232e+07 -9.460777716277e+06 -8.036460035481e+06 -6.723014911775e+06 -5.509227592028e+06 -4.385266875437e+06 -3.342484295609e+06 -2.373247915942e+06 -1.470801468782e+06 -6.291474894671e+05 1.570536833077e+05 8.925676391684e+05 1.581659531607e+06 2.228154346566e+06 2.835491859805e+06 3.406770766139e+06 3.944789509171e+06 4.452078956060e+06 4.930933112254e+06 5.383432492892e+06 5.811465495305e+06 6.216742735852e+06 6.600805722189e+06 6.965023517408e+06 7.310572142285e+06 7.638409694953e+06 -9.187758418137e+06 -7.503279253712e+06 -5.979757651170e+06 -4.593280611771e+06 -3.327392065628e+06 -2.168380547096e+06 -1.104515004743e+06 -1.256529357857e+05 7.770264880972e+05 1.611227297527e+06 2.383703640200e+06 3.100396955354e+06 3.766550861508e+06 4.386806854669e+06 4.965286105843e+06 5.505656921491e+06 6.011194254778e+06 6.484828269845e+06 6.929187727304e+06 7.346635757173e+06 7.739302123008e+06 8.109109135032e+06 8.457796291998e+06 8.786939053525e+06 9.097966260916e+06 9.392173261058e+06 9.670731034093e+06 9.934689507128e+06 1.018497114923e+07 1.042234812919e+07 1.064741151470e+07 3.867742500620e+06 4.723299907830e+06 5.494835853413e+06 6.196656937206e+06 6.837389970001e+06 7.424040913952e+06 7.962557884490e+06 8.458072524357e+06 8.915044963803e+06 9.337370442523e+06 9.728463917070e+06 1.009132985000e+07 1.042861988407e+07 1.074268165007e+07 1.103559940607e+07 1.130922900248e+07 1.156522690339e+07 1.180507574871e+07 1.203010533949e+07 1.224151154205e+07 1.244037171366e+07 1.262765870526e+07 1.280425212145e+07 1.297094866590e+07 1.312846965350e+07 1.327746697716e+07 1.341852608710e+07 1.355216363405e+07 1.367881738239e+07 1.379882121947e+07 1.391236824255e+07 1.744501107714e+07 1.743851828097e+07 1.742801496702e+07 1.741781731962e+07 1.740841026690e+07 1.739982584139e+07 1.739199849875e+07 1.738484846100e+07 1.737830109382e+07 1.737229044851e+07 1.736675897776e+07 1.736165665745e+07 1.735693976643e+07 1.735256998914e+07 1.734851385967e+07 1.734474172969e+07 1.734122735950e+07 1.733794767238e+07 1.733488194535e+07 1.733201167036e+07 1.732932029063e+07 1.732679266004e+07 1.732441471664e+07 1.732217282148e+07 1.732005260919e+07 1.731803701977e+07 1.731610231687e+07 1.731421056951e+07 1.731229563436e+07 1.731023560349e+07 1.730780941883e+07 3.102228024037e+07 3.015373695165e+07 2.936119419644e+07 2.863897767381e+07 2.797943029417e+07 2.737561050516e+07 2.682143873925e+07 2.631162393388e+07 2.584155673882e+07 2.540720994315e+07 2.500505352155e+07 2.463198291656e+07 2.428525902622e+07 2.396245780933e+07 2.366142772946e+07 2.338025384206e+07 2.311722729326e+07 2.287081905097e+07 2.263965797041e+07 2.242251128662e+07 2.221826835086e+07 2.202592612749e+07 2.184457681815e+07 2.167339648984e+07 2.151163517027e+07 2.135860663402e+07 2.121367810404e+07 2.107625718883e+07 2.094577354404e+07 2.082164960036e+07 2.070325031457e+07 4.407778280899e+07 4.238031701190e+07 4.083578797984e+07 3.942891501376e+07 3.814421183449e+07 3.696803107911e+07 3.588851056958e+07 3.489534817413e+07 3.397957389548e+07 3.313335162935e+07 3.234981231803e+07 3.162291425743e+07 3.094732650790e+07 3.031833093422e+07 2.973173947310e+07 2.918382427612e+07 2.867125835933e+07 2.819106493192e+07 2.774057408088e+07 2.731738552444e+07 2.691933653389e+07 2.654447423738e+07 2.619103131656e+07 2.585740483085e+07 2.554213727044e+07 2.524389920212e+07 2.496147205209e+07 2.469373024672e+07 2.443961875359e+07 2.419812180665e+07 2.396820619062e+07 5.610980270685e+07 5.364839756506e+07 5.141083407198e+07 4.937297804098e+07 4.751212791529e+07 4.580845633522e+07 4.424477167760e+07 4.280615347722e+07 4.147961321083e+07 4.025380441866e+07 3.911878058187e+07 3.806579324033e+07 3.708712285054e+07 3.617593699584e+07 3.532617061804e+07 3.453242520631e+07 3.378988256309e+07 3.309423147248e+07 3.244160511438e+07 3.182852730861e+07 3.125186567240e+07 3.070879190914e+07 3.019674660928e+07 2.971340889046e+07 2.925666924468e+07 2.882460525342e+07 2.841545866734e+07 2.802761251121e+07 2.765956495456e+07 2.730989639173e+07 2.697720681384e+07 6.665595591197e+07 6.352495245153e+07 6.067993915594e+07 5.808902194212e+07 5.572317487745e+07 5.355715370632e+07 5.156909559066e+07 4.974003222570e+07 4.805345258177e+07 4.649493333613e+07 4.505183079984e+07 4.371302384464e+07 4.246869931480e+07 4.131017155114e+07 4.022973049493e+07 3.922051313533e+07 3.827639416764e+07 3.739189282081e+07 3.656209331951e+07 3.578257614485e+07 3.504935921798e+07 3.435884688236e+07 3.370778547081e+07 3.309322476029e+07 3.251248377980e+07 3.196312041503e+07 3.144290337945e+07 3.094978481866e+07 3.048187151177e+07 3.003738979152e+07 2.961461807285e+07 7.531095947896e+07 7.163043101511e+07 6.828689671199e+07 6.524209395077e+07 6.246180670592e+07 5.991634511170e+07 5.758001276248e+07 5.543051935257e+07 5.344846304774e+07 5.161689546491e+07 4.992095925207e+07 4.834758623756e+07 4.688524499015e+07 4.552372899502e+07 4.425397812896e+07 4.306792750957e+07 4.195837913291e+07 4.091889243901e+07 3.994369066072e+07 3.902758024652e+07 3.816588173485e+07 3.735436969103e+07 3.658922073097e+07 3.586696806971e+07 3.518446185863e+07 3.453883341514e+07 3.392746318274e+07 3.334794983852e+07 3.279807882759e+07 3.227578599698e+07 3.177908574683e+07 8.174220639982e+07 7.765334416663e+07 7.393937545666e+07 7.055730549642e+07 6.746906154907e+07 6.464165040026e+07 6.204652704651e+07 5.965893269663e+07 5.745731748392e+07 5.542285668362e+07 5.353904814459e+07 5.179137682903e+07 5.016703453896e+07 4.865468470131e+07 4.724426395099e+07 4.592681436400e+07 4.469434085523e+07 4.353968967035e+07 4.245644424731e+07 4.143883591791e+07 4.048166699131e+07 3.958024406588e+07 3.873032039494e+07 3.792804546221e+07 3.716992084773e+07 3.645276102559e+07 3.577365787020e+07 3.512994744012e+07 3.451917637493e+07 3.393906465239e+07 3.338743058391e+07 8.570254747313e+07 8.136223428615e+07 7.742015373119e+07 7.383039610027e+07 7.055251357352e+07 6.755147892540e+07 6.479699297038e+07 6.226277679387e+07 5.992595787687e+07 5.776655609790e+07 5.576705633351e+07 5.391205261869e+07 5.218795060434e+07 5.058271773575e+07 4.908567287866e+07 4.768730819677e+07 4.637913779071e+07 4.515356864308e+07 4.400379026084e+07 4.292367985882e+07 4.190772052781e+07 4.095093077189e+07 4.004880311414e+07 3.919725074055e+07 3.839256058493e+07 3.763135199442e+07 3.691053921529e+07 3.622729647014e+07 3.557902339457e+07 3.496330697092e+07 3.437784466244e+07 8.703978420069e+07 8.261457155601e+07 7.859546826799e+07 7.493558340188e+07 7.159366788992e+07 6.853400775314e+07 6.572571157689e+07 6.314198729460e+07 6.075951568774e+07 5.855792644629e+07 5.651936254345e+07 5.462811715311e+07 5.287033036315e+07 5.123373472461e+07 4.970744051661e+07 4.828175414987e+07 4.694802400192e+07 4.569850880367e+07 4.452626502038e+07 4.342505021421e+07 4.238923980664e+07 4.141375496782e+07 4.049400018675e+07 3.962580883848e+07 3.880539546155e+07 3.802931346201e+07 3.729441710911e+07 3.659782609796e+07 3.593689044428e+07 3.530915237320e+07 3.471226887690e+07 
        </DataArray>
        <DataArray type="Float64" Name="STRESS_XY" format="ascii">
          -2.566637264902e+04 -1.659105858203e+04 -1.400003426635e+04 -1.277617816045e+04 -1.194236867112e+04 -1.125210277955e+04 -1.063756288741e+04 -1.007683225066e+04 -9.560565523856e+03 -9.083245150721e+03 -8.640778700595e+03 -8.229790595178e+03 -7.847336347316e+03 -7.490840238006e+03 -7.158000217657e+03 -6.846791851181e+03 -6.555340804570e+03 -6.282026957536e+03 -6.025287579641e+03 -5.783707191017e+03 -5.555786359248e+03 -5.339891534764e+03 -5.133770820867e+03 -4.933911854059e+03 -4.734033277889e+03 -4.522160534823e+03 -4.274851230145e+03 -3.945984661739e+03 -3.445043327015e+03 -2.595988253487e+03 -1.036206811415e+03 -1.357726237989e+07 -1.271521370610e+07 -1.193317565716e+07 -1.122115795324e+07 -1.057101864185e+07 -9.975783976624e+06 -9.429440212341e+06 -8.926776006137e+06 -8.463256580645e+06 -8.034920796192e+06 -7.638296127638e+06 -7.270328103843e+06 -6.928321345841e+06 -6.609890026309e+06 -6.312916262707e+06 -6.035514656722e+06 -5.776002528858e+06 -5.532874097228e+06 -5.304778838322e+06 -5.090502458631e+06 -4.888950974279e+06 -4.699136429660e+06 -4.520165089904e+06 -4.351226718445e+06 -4.191585610769e+06 -4.040572693899e+06 -3.897578926513e+06 -3.762049718982e+06 -3.633481070659e+06 -3.511417179448e+06 -3.395444066017e+06 -2.663275866115e+07 -2.494178919450e+07 -2.340776628273e+07 -2.201109321757e+07 -2.073579898046e+07 -1.956820415655e+07 -1.849651223887e+07 -1.751050089234e+07 -1.660127482122e+07 -1.576106391836e+07 -1.498305663471e+07 -1.426126138522e+07 -1.359039096778e+07 -1.296576549124e+07 -1.238323044778e+07 -1.183908766595e+07 -1.133003627052e+07 -1.085312273756e+07 -1.040569774259e+07 -9.985379571865e+06 -9.590022052584e+06 -9.217687471519e+06 -8.866622547794e+06 -8.535238010630e+06 -8.222090708527e+06 -7.925868242884e+06 -7.645375849742e+06 -7.379525789873e+06 -7.127329263912e+06 -6.887892380673e+06 -6.660402888140e+06 -3.866477381006e+07 -3.620986630079e+07 -3.398280994207e+07 -3.195515468814e+07 -3.010371425351e+07 -2.840862914278e+07 -2.685277353749e+07 -2.542130683025e+07 -2.410131509435e+07 -2.288151789375e+07 -2.175202632484e+07 -2.070414200546e+07 -1.973018911230e+07 -1.882337342414e+07 -1.797766363625e+07 -1.718769071447e+07 -1.644866266412e+07 -1.575629148628e+07 -1.510673112122e+07 -1.449652366961e+07 -1.392255356345e+07 -1.338200750846e+07 -1.287234024213e+07 -1.239124445756e+07 -1.193662504971e+07 -1.150657667116e+07 -1.109936486214e+07 -1.071341037212e+07 -1.034727780712e+07 -9.999669285997e+06 -9.669405766347e+06 -4.921092446067e+07 -4.608641926901e+07 -4.325191370778e+07 -4.067119773096e+07 -3.831476072252e+07 -3.615732638162e+07 -3.417709759750e+07 -3.235518594726e+07 -3.067515500869e+07 -2.912264755764e+07 -2.768507740976e+07 -2.635137360191e+07 -2.511176663774e+07 -2.395760918893e+07 -2.288122475238e+07 -2.187577995127e+07 -2.093517560932e+07 -2.005395428448e+07 -1.922722072046e+07 -1.845057398388e+07 -1.772004857651e+07 -1.703206397941e+07 -1.638338056521e+07 -1.577106179733e+07 -1.519244103001e+07 -1.464509329321e+07 -1.412681093989e+07 -1.363558409647e+07 -1.316958569674e+07 -1.272716399551e+07 -1.230681826419e+07 -5.786592794395e+07 -5.419189769998e+07 -5.085887113923e+07 -4.782426966445e+07 -4.505339247955e+07 -4.251651774762e+07 -4.018801480741e+07 -3.804567309868e+07 -3.607016558883e+07 -3.424460982069e+07 -3.255420606106e+07 -3.098593620829e+07 -2.952831259770e+07 -2.817116693667e+07 -2.690547273419e+07 -2.572319467441e+07 -2.461716100224e+07 -2.358095429190e+07 -2.260881847922e+07 -2.169557850975e+07 -2.083657152550e+07 -2.002758718718e+07 -1.926481623400e+07 -1.854480551000e+07 -1.786441948821e+07 -1.722080661301e+07 -1.661137108511e+07 -1.603374937986e+07 -1.548579325984e+07 -1.496556036859e+07 -1.447128607888e+07 -6.429717709043e+07 -6.021481245251e+07 -5.651135100109e+07 -5.313948192197e+07 -5.006064766975e+07 -4.724182313416e+07 -4.465452897501e+07 -4.227408621194e+07 -4.007901965026e+07 -3.805057064315e+07 -3.617229449496e+07 -3.442972632450e+07 -3.281010165627e+07 -3.130212216512e+07 -2.989575805539e+07 -2.858208106503e+07 -2.735312223322e+07 -2.620175104498e+07 -2.512157158545e+07 -2.410683369730e+07 -2.315235625767e+07 -2.225346105738e+07 -2.140591534458e+07 -2.060588231723e+07 -1.984987785976e+07 -1.913473357160e+07 -1.845756506097e+07 -1.781574623477e+07 -1.720689000867e+07 -1.662883818144e+07 -1.607963005528e+07 -6.825752217645e+07 -6.392370601837e+07 -5.999213152861e+07 -5.641257378140e+07 -5.314410030320e+07 -5.015165173446e+07 -4.740499460411e+07 -4.487792978404e+07 -4.254765938329e+07 -4.039426922144e+07 -3.840030179565e+07 -3.655040119013e+07 -3.483101674071e+07 -3.323015417794e+07 -3.173716597660e+07 -3.034257386043e+07 -2.903791812088e+07 -2.781562894999e+07 -2.666891655043e+07 -2.559167653899e+07 -2.457840869833e+07 -2.362414662476e+07 -2.272439692013e+07 -2.187508636683e+07 -2.107251632890e+07 -2.031332319241e+07 -1.959444494020e+07 -1.891309370303e+07 -1.826673537347e+07 -1.765307883648e+07 -1.707004259772e+07 -6.959476888645e+07 -6.517604737246e+07 -6.116744808496e+07 -5.751776209826e+07 -5.418525498727e+07 -5.113418054083e+07 -4.833371292392e+07 -4.575713975808e+07 -4.338121646510e+07 -4.118563876062e+07 -3.915260707661e+07 -3.726646467807e+07 -3.551339541145e+07 -3.388117004784e+07 -3.235893241706e+07 -3.093701859413e+07 -2.960680311621e+07 -2.836056786946e+07 -2.719139001632e+07 -2.609304562613e+07 -2.505992668346e+07 -2.408696950913e+07 -2.316959264961e+07 -2.230364313009e+07 -2.148534981003e+07 -2.071128319249e+07 -1.997832128586e+07 -1.928362159043e+07 -1.862460035099e+07 -1.799892155202e+07 -1.740446298776e+07 -6.825752712020e+07 -6.392370945330e+07 -5.999213373748e+07 -5.641257500750e+07 -5.314410073991e+07 -5.015165153228e+07 -4.740499389503e+07 -4.487792867891e+07 -4.254765792817e+07 -4.039426750137e+07 -3.840029984568e+07 -3.655039905512e+07 -3.483101445688e+07 -3.323015177843e+07 -3.173716347770e+07 -3.034257129650e+07 -2.903791548839e+07 -2.781562629511e+07 -2.666891385501e+07 -2.559167382952e+07 -2.457840597198e+07 -2.362414389094e+07 -2.272439416036e+07 -2.187508361957e+07 -2.107251356513e+07 -2.031332042718e+07 -1.959444217051e+07 -1.891309092672e+07 -1.826673259233e+07 -1.765307604190e+07 -1.707003983671e+07 -6.429718607904e+07 -6.021481870043e+07 -5.651135502976e+07 -5.313948414855e+07 -5.006064847275e+07 -4.724182277716e+07 -4.465452769022e+07 -4.227408415285e+07 -4.007901699931e+07 -3.805056748762e+07 -3.617229093070e+07 -3.442972242464e+07 -3.281009749239e+07 -3.130211777255e+07 -2.989575350092e+07 -2.858207636247e+07 -2.735311744641e+07 -2.620174617677e+07 -2.512156665990e+07 -2.410682873063e+07 -2.315235127181e+07 -2.225345603560e+07 -2.140591031788e+07 -2.060587726404e+07 -1.984987280928e+07 -1.913472848969e+07 -1.845755998414e+07 -1.781574114720e+07 -1.720688491158e+07 -1.662883307224e+07 -1.607962498155e+07 -5.786593930351e+07 -5.419190562783e+07 -5.085887623804e+07 -4.782427250824e+07 -4.505339351121e+07 -4.251651729277e+07 -4.018801312842e+07 -3.804567049469e+07 -3.607016217093e+07 -3.424460575135e+07 -3.255420147453e+07 -3.098593120417e+07 -2.952830724205e+07 -2.817116130057e+07 -2.690546688587e+07 -2.572318867174e+07 -2.461715483201e+07 -2.358094803951e+07 -2.260881216832e+07 -2.169557212007e+07 -2.083656509800e+07 -2.002758074082e+07 -1.926480973916e+07 -1.854479900219e+07 -1.786441295438e+07 -1.722080006763e+07 -1.661136451876e+07 -1.603374279919e+07 -1.548578666864e+07 -1.496555376815e+07 -1.447127952194e+07 -4.921093616354e+07 -4.608642740825e+07 -4.325191896976e+07 -4.067120064705e+07 -3.831476175693e+07 -3.615732586568e+07 -3.417709584540e+07 -3.235518315072e+07 -3.067515137954e+07 -2.912264326126e+07 -2.768507254653e+07 -2.635136829459e+07 -2.511176097865e+07 -2.395760322197e+07 -2.288121857348e+07 -2.187577357679e+07 -2.093516909931e+07 -2.005394766171e+07 -1.922721401087e+07 -1.845056718892e+07 -1.772004175141e+07 -1.703205708538e+07 -1.638337366381e+07 -1.577105484991e+07 -1.519243406737e+07 -1.464508629830e+07 -1.412680393597e+07 -1.363557706053e+07 -1.316957865258e+07 -1.272715694109e+07 -1.230681122771e+07 -3.866478374509e+07 -3.620987320268e+07 -3.398281437461e+07 -3.195515714586e+07 -3.010371506330e+07 -2.840862862393e+07 -2.685277191790e+07 -2.542130430437e+07 -2.410131183283e+07 -2.288151400995e+07 -2.175202194610e+07 -2.070413722541e+07 -1.973018399213e+07 -1.882336805403e+07 -1.797765804735e+07 -1.718768497118e+07 -1.644865676289e+07 -1.575628551044e+07 -1.510672503669e+07 -1.449651753677e+07 -1.392254736494e+07 -1.338200128273e+07 -1.287233394609e+07 -1.239123815500e+07 -1.193661868749e+07 -1.150657029904e+07 -1.109935844067e+07 -1.071340394666e+07 -1.034727134339e+07 -9.999662793912e+06 -9.669399284239e+06 -2.663276506730e+07 -2.494179362480e+07 -2.340776913468e+07 -2.201109475061e+07 -2.073579941227e+07 -1.956820367597e+07 -1.849651098198e+07 -1.751049897079e+07 -1.660127235208e+07 -1.576106100384e+07 -1.498305332944e+07 -1.426125777410e+07 -1.359038712493e+07 -1.296576141866e+07 -1.238322623876e+07 -1.183908330836e+07 -1.133003183066e+07 -1.085311820551e+07 -1.040569316779e+07 -9.985374948267e+06 -9.590017390093e+06 -9.217682777775e+06 -8.866617805086e+06 -8.535233232395e+06 -8.222085898982e+06 -7.925863375103e+06 -7.645370969156e+06 -7.379520844251e+06 -7.127324297028e+06 -6.887887337750e+06 -6.660397826651e+06 -1.357726403216e+07 -1.271521507975e+07 -1.193317669846e+07 -1.122115850013e+07 -1.057101867473e+07 -9.975783546885e+06 -9.429439365879e+06 -8.926774811278e+06 -8.463255101394e+06 -8.034919074047e+06 -7.638294205107e+06 -7.270326035082e+06 -6.928319139517e+06 -6.609887730659e+06 -6.312913876283e+06 -6.035512236997e+06 -5.776000042227e+06 -5.532871597226e+06 -5.304776330538e+06 -5.090499926150e+06 -4.888948450169e+06 -4.699133893040e+06 -4.520162555037e+06 -4.351224153186e+06 -4.191583046451e+06 -4.040570113456e+06 -3.897576285314e+06 -3.762047049961e+06 -3.633478266807e+06 -3.511414253621e+06 -3.395440994884e+06 -2.566478823694e+04 -1.659013656901e+04 -1.399915232015e+04 -1.277533427810e+04 -1.194156337279e+04 -1.125134847798e+04 -1.063686687030e+04 -1.007618123142e+04 -9.559963852863e+03 -9.082695666905e+03 -8.640267856122e+03 -8.229318138530e+03 -7.846917663037e+03 -7.490446495349e+03 -7.157653743317e+03 -6.846471988670e+03 -6.555059119310e+03 -6.281768704253e+03 -6.025054822763e+03 -5.783499137652e+03 -5.555596661062e+03 -5.339733016659e+03 -5.133630360718e+03 -4.933812056547e+03 -4.733952004856e+03 -4.522103404890e+03 -4.274829256595e+03 -3.945961440456e+03 -3.445041266058e+03 -2.595951360678e+03 -1.036032009005e+03 
        </DataArray>
        <DataArray type="Float64" Name="STRESS_YY" format="ascii">
          8.703973957028e+07 8.261452906482e+07 7.859542975952e+07 7.493554905987e+07 7.159363749889e+07 6.853398103061e+07 6.572568827851e+07 6.314196713184e+07 6.075949841781e+07 5.855791190230e+07 5.651935055154e+07 5.462810751547e+07 5.287032301611e+07 5.123372952184e+07 4.970743737281e+07 4.828175295454e+07 4.694802473705e+07 4.569851133527e+07 4.452626934301e+07 4.342505624146e+07 4.238924754398e+07 4.141376430213e+07 4.049401115901e+07 3.962582134686e+07 3.880540951366e+07 3.802932895210e+07 3.729443405842e+07 3.659784433165e+07 3.593690992700e+07 3.530917282548e+07 3.471228998864e+07 8.570249676933e+07 8.136219050154e+07 7.742011509889e+07 7.383036188993e+07 7.055248336304e+07 6.755145231585e+07 6.479696966119e+07 6.226275654562e+07 5.992594046544e+07 5.776654130437e+07 5.576704402091e+07 5.391204263918e+07 5.218794284091e+07 5.058271206717e+07 4.908566923630e+07 4.768730649443e+07 4.637913795887e+07 4.515357060627e+07 4.400379400409e+07 4.292368529244e+07 4.190772764250e+07 4.095093950094e+07 4.004881347109e+07 3.919726263673e+07 3.839257404189e+07 3.763136696961e+07 3.691055569606e+07 3.622731443967e+07 3.557904289878e+07 3.496332806773e+07 3.437786755606e+07 8.174215783608e+07 7.765330140564e+07 7.393933769284e+07 7.055727207964e+07 6.746903191667e+07 6.464162418093e+07 6.204650393208e+07 5.965891240445e+07 5.745729978570e+07 5.542284146000e+07 5.353903520294e+07 5.179136604791e+07 5.016702583280e+07 4.865467798231e+07 4.724425913063e+07 4.592681138441e+07 4.469433967367e+07 4.353969023079e+07 4.245644650353e+07 4.143883984425e+07 4.048167255244e+07 3.958025123734e+07 3.873032915095e+07 3.792805579875e+07 3.716993275552e+07 3.645277447139e+07 3.577367290654e+07 3.512996402083e+07 3.451919454605e+07 3.393908436906e+07 3.338745195060e+07 7.531091599202e+07 7.163039208272e+07 6.828686173918e+07 6.524206253868e+07 6.246177843656e+07 5.991631972319e+07 5.757999000916e+07 5.543049902955e+07 5.344844499186e+07 5.161687955017e+07 4.992094536641e+07 4.834757427791e+07 4.688523488273e+07 4.552372069543e+07 4.425397155359e+07 4.306792265103e+07 4.195837592241e+07 4.091889089317e+07 3.994369068130e+07 3.902758188654e+07 3.816588491600e+07 3.735437444911e+07 3.658922698475e+07 3.586697591410e+07 3.518447118387e+07 3.453884431104e+07 3.392747557585e+07 3.334796381549e+07 3.279809431735e+07 3.227580305111e+07 3.177910440928e+07 6.665591978383e+07 6.352491921862e+07 6.067990852823e+07 5.808899365130e+07 5.572314884393e+07 5.355712974187e+07 5.156907360105e+07 4.974001207608e+07 4.805343424499e+07 4.649491672929e+07 4.505181583829e+07 4.371301050615e+07 4.246868759238e+07 4.131016133541e+07 4.022972184227e+07 3.922050597842e+07 3.827638852246e+07 3.739188863693e+07 3.656209063212e+07 3.578257488612e+07 3.504935945004e+07 3.435884851366e+07 3.370778861211e+07 3.309322929961e+07 3.251248980330e+07 3.196312788002e+07 3.144291233993e+07 3.094979521545e+07 3.048188342976e+07 3.003740320798e+07 2.961463305186e+07 5.610977532122e+07 5.364837120961e+07 5.141080868518e+07 4.937295377090e+07 4.751210481438e+07 4.580843438036e+07 4.424475087420e+07 4.280613397701e+07 4.147959490061e+07 4.025378733133e+07 3.911876475533e+07 3.806577871047e+07 3.708710954840e+07 3.617592494885e+07 3.532615986772e+07 3.453241576787e+07 3.378987432833e+07 3.309422457375e+07 3.244159952888e+07 3.182852298392e+07 3.125186264855e+07 3.070879023995e+07 3.019674622268e+07 2.971340986074e+07 2.925667153494e+07 2.882460893046e+07 2.841546368968e+07 2.802761891570e+07 2.765957276596e+07 2.730990561211e+07 2.697721752532e+07 4.407776445015e+07 4.238029787737e+07 4.083576837148e+07 3.942889519812e+07 3.814419213195e+07 3.696801164938e+07 3.588849158525e+07 3.489532971662e+07 3.397955613284e+07 3.313333461354e+07 3.234979612527e+07 3.162289891952e+07 3.094731211536e+07 3.031831748192e+07 2.973172703240e+07 2.918381282126e+07 2.867124798204e+07 2.819105561554e+07 2.774056585157e+07 2.731737840063e+07 2.691933057606e+07 2.654446939578e+07 2.619102766552e+07 2.585740234398e+07 2.554213602278e+07 2.524389911478e+07 2.496147323804e+07 2.469373267125e+07 2.443962243772e+07 2.419812676404e+07 2.396821254522e+07 3.102227023170e+07 3.015372466211e+07 2.936118020853e+07 2.863896250014e+07 2.797941432916e+07 2.737559401743e+07 2.682142203530e+07 2.631160724724e+07 2.584154017217e+07 2.540719371338e+07 2.500503767639e+07 2.463196758410e+07 2.428524428584e+07 2.396244371011e+07 2.366141432314e+07 2.338024121729e+07 2.311721542203e+07 2.287080807271e+07 2.263964782649e+07 2.242250207864e+07 2.221826008841e+07 2.202591883427e+07 2.184457048446e+07 2.167339122902e+07 2.151163089580e+07 2.135860341885e+07 2.121367597464e+07 2.107625612432e+07 2.094577358393e+07 2.082165074105e+07 2.070325268209e+07 1.744500781897e+07 1.743851182452e+07 1.742800608527e+07 1.741780658745e+07 1.740839807044e+07 1.739981263949e+07 1.739198459799e+07 1.738483407852e+07 1.737828648069e+07 1.737227576521e+07 1.736674438898e+07 1.736164224432e+07 1.735692563008e+07 1.735255624670e+07 1.734850056134e+07 1.734472889909e+07 1.734121513323e+07 1.733793603744e+07 1.733487097847e+07 1.733200139381e+07 1.732931077236e+07 1.732678390447e+07 1.732440676838e+07 1.732216567996e+07 1.732004633054e+07 1.731803161721e+07 1.731609774165e+07 1.731420694769e+07 1.731229288325e+07 1.731023377633e+07 1.730780860663e+07 3.867743886015e+06 4.723297902567e+06 5.494831182492e+06 6.196650111747e+06 6.837381514868e+06 7.424031163191e+06 7.962547143363e+06 8.458061046267e+06 8.915032995504e+06 9.337358151617e+06 9.728451442773e+06 1.009131732693e+07 1.042860745322e+07 1.074266930935e+07 1.103558730459e+07 1.130921720443e+07 1.156521543997e+07 1.180506465426e+07 1.203009473711e+07 1.224150141468e+07 1.244036210796e+07 1.262764966096e+07 1.280424371998e+07 1.297094087817e+07 1.312846246473e+07 1.327746050442e+07 1.341852029167e+07 1.355215848607e+07 1.367881294461e+07 1.379881755957e+07 1.391236530673e+07 -9.187754564193e+06 -7.503278443461e+06 -5.979759213763e+06 -4.593284105878e+06 -3.327397162512e+06 -2.168386889366e+06 -1.104522426846e+06 -1.256611057291e+05 7.770176677969e+05 1.611218003517e+06 2.383694033469e+06 3.100387153717e+06 3.766540905227e+06 4.386796969219e+06 4.965276160918e+06 5.505647180084e+06 6.011184627047e+06 6.484818864263e+06 6.929178545224e+06 7.346626939622e+06 7.739293523492e+06 8.109101010933e+06 8.457788508747e+06 8.786931701885e+06 9.097959388901e+06 9.392166824850e+06 9.670725078580e+06 9.934684046624e+06 1.018496619487e+07 1.042234365977e+07 1.064740762197e+07 -2.121977165206e+07 -1.877135638734e+07 -1.655480286111e+07 -1.453734487200e+07 -1.269531124111e+07 -1.100881027117e+07 -9.460781756923e+06 -8.036464879257e+06 -6.723020298575e+06 -5.509233512483e+06 -4.385273105221e+06 -3.342490904619e+06 -2.373254673235e+06 -1.470808375681e+06 -6.291544468119e+05 1.570465905573e+05 8.925607411783e+05 1.581652527742e+06 2.228147512254e+06 2.835485069511e+06 3.406764207117e+06 3.944783022936e+06 4.452072776620e+06 4.930927102093e+06 5.383426808277e+06 5.811460025543e+06 6.216737586826e+06 6.600800875170e+06 6.965018980508e+06 7.310567918906e+06 7.638405804324e+06 -3.176592324581e+07 -2.864790971566e+07 -2.582390650943e+07 -2.325338740282e+07 -2.090635690196e+07 -1.875750644769e+07 -1.678510458413e+07 -1.497034257492e+07 -1.329685869025e+07 -1.175036157050e+07 -1.031832255551e+07 -8.989720809994e+06 -7.754830489600e+06 -6.605042437621e+06 -5.532713892712e+06 -4.531040931460e+06 -3.593950606593e+06 -2.716008667340e+06 -1.892340549126e+06 -1.118563718544e+06 -3.907293806400e+05 2.947279213382e+05 9.410337281326e+05 1.551110983789e+06 2.127611912496e+06 2.672944446938e+06 3.189292461543e+06 3.678628020077e+06 4.142711841941e+06 4.583073934251e+06 5.000993901873e+06 -4.042092629622e+07 -3.675338767329e+07 -3.343086349063e+07 -3.040645890434e+07 -2.764498814943e+07 -2.511669729070e+07 -2.279602122376e+07 -2.066082917214e+07 -1.869186862683e+07 -1.687232318566e+07 -1.518745056116e+07 -1.362428273879e+07 -1.217137573095e+07 -1.081859954314e+07 -9.556961186059e+06 -8.378454995073e+06 -7.275935355510e+06 -6.243008079126e+06 -5.273937692230e+06 -4.363567704592e+06 -3.507251818976e+06 -2.700794807698e+06 -1.940401494138e+06 -1.222632379532e+06 -5.443662124134e+05 9.723136905559e+04 7.047325287153e+05 1.280462842293e+06 1.826504361517e+06 2.344677578012e+06 2.836526029533e+06 -4.685217362355e+07 -4.277630115343e+07 -3.908334249829e+07 -3.572167065940e+07 -3.265224309039e+07 -2.984200259973e+07 -2.726253550440e+07 -2.488924241827e+07 -2.270072290125e+07 -2.067828424089e+07 -1.880553924774e+07 -1.706807309421e+07 -1.545316506399e+07 -1.394955502951e+07 -1.254724678025e+07 -1.123734163751e+07 -1.001189688237e+07 -8.863805104444e+06 -7.786691096652e+06 -6.774823193113e+06 -5.823036863453e+06 -4.926669001699e+06 -4.081500972091e+06 -3.283709566600e+06 -2.529825045586e+06 -1.816696051842e+06 -1.141462000703e+06 -5.015345818125e+05 1.054069983217e+05 6.813990778808e+05 1.228181380548e+06 -5.081251582841e+07 -4.648519278876e+07 -4.256412200470e+07 -3.899476211977e+07 -3.573569584332e+07 -3.275183160336e+07 -3.001300164962e+07 -2.749308671894e+07 -2.516936343215e+07 -2.302198364064e+07 -2.103354739467e+07 -1.918874885498e+07 -1.747408103061e+07 -1.587758791918e+07 -1.438865559566e+07 -1.299783537554e+07 -1.169669365394e+07 -1.047768391487e+07 -9.334036977959e+06 -8.259666919064e+06 -7.249090164533e+06 -6.297355463324e+06 -5.399983411535e+06 -4.552914485635e+06 -3.752464400845e+06 -2.995286610980e+06 -2.278342841878e+06 -1.598883086190e+06 -9.544394944911e+05 -3.428427506611e+05 2.377676863611e+05 -5.214975981506e+07 -4.773753331505e+07 -4.373943817973e+07 -4.009995038389e+07 -3.677685062556e+07 -3.373436072212e+07 -3.094172054799e+07 -2.837229733301e+07 -2.600292126791e+07 -2.381335408060e+07 -2.178585362918e+07 -1.990481333310e+07 -1.815646078027e+07 -1.652860491794e+07 -1.501042317555e+07 -1.359228124945e+07 -1.226557984817e+07 -1.102262402231e+07 -9.856511620905e+06 -8.761037205150e+06 -7.730609350404e+06 -6.760179481059e+06 -5.845180283683e+06 -4.981472378786e+06 -4.165298946252e+06 -3.393247659525e+06 -2.662220193716e+06 -1.969411911896e+06 -1.312305380188e+06 -6.886864454835e+05 -9.665395472437e+04 
        </DataArray>
        <DataArray type="Float64" Name="STRESS_ZZ" format="ascii">
          1.046699402760e+07 1.046309864449e+07 1.045679700464e+07 1.045067884620e+07 1.044503508636e+07 1.043988495781e+07 1.043518910009e+07 1.043089965615e+07 1.042697181847e+07 1.042336602105e+07 1.042004777158e+07 1.041698696349e+07 1.041415743949e+07 1.041153620385e+07 1.040910314665e+07 1.040684045300e+07 1.040473249872e+07 1.040276527719e+07 1.040092647783e+07 1.039920492337e+07 1.039759075206e+07 1.039607476751e+07 1.039464867013e+07 1.039330414270e+07 1.039203269468e+07 1.039082395775e+07 1.038966380810e+07 1.038852940013e+07 1.038738112198e+07 1.038614572224e+07 1.038469078694e+07 1.046699428268e+07 1.046309887399e+07 1.045679722209e+07 1.045067903466e+07 1.044503524876e+07 1.043988510816e+07 1.043518923695e+07 1.043089976015e+07 1.042697192083e+07 1.042336611338e+07 1.042004784187e+07 1.041698702430e+07 1.041415749482e+07 1.041153624306e+07 1.040910316739e+07 1.040684047275e+07 1.040473250797e+07 1.040276527551e+07 1.040092645816e+07 1.039920491363e+07 1.039759071525e+07 1.039607473458e+07 1.039464862325e+07 1.039330409835e+07 1.039203262148e+07 1.039082389456e+07 1.038966372080e+07 1.038852931735e+07 1.038738100980e+07 1.038614563396e+07 1.038469067139e+07 1.046699505695e+07 1.046309955720e+07 1.045679783461e+07 1.045067959253e+07 1.044503573779e+07 1.043988554028e+07 1.043518961340e+07 1.043090010756e+07 1.042697220302e+07 1.042336637447e+07 1.042004805442e+07 1.041698721470e+07 1.041415762393e+07 1.041153636469e+07 1.040910323706e+07 1.040684053155e+07 1.040473250926e+07 1.040276528020e+07 1.040092641402e+07 1.039920485142e+07 1.039759061809e+07 1.039607463340e+07 1.039464847186e+07 1.039330393829e+07 1.039203243526e+07 1.039082367700e+07 1.038966347535e+07 1.038852905653e+07 1.038738072590e+07 1.038614531065e+07 1.038469033513e+07 1.046699628596e+07 1.046310066012e+07 1.045679881628e+07 1.045068047305e+07 1.044503651323e+07 1.043988623756e+07 1.043519022472e+07 1.043090063932e+07 1.042697267495e+07 1.042336678010e+07 1.042004839969e+07 1.041698749754e+07 1.041415785898e+07 1.041153654188e+07 1.040910335834e+07 1.040684061361e+07 1.040473253928e+07 1.040276526952e+07 1.040092634413e+07 1.039920476255e+07 1.039759045526e+07 1.039607446362e+07 1.039464822754e+07 1.039330369104e+07 1.039203210480e+07 1.039082335782e+07 1.038966305875e+07 1.038852865343e+07 1.038738023246e+07 1.038614482293e+07 1.038468977855e+07 1.046699789659e+07 1.046310209983e+07 1.045680011188e+07 1.045068159725e+07 1.044503754887e+07 1.043988713540e+07 1.043519103156e+07 1.043090132523e+07 1.042697330366e+07 1.042336730398e+07 1.042004885246e+07 1.041698785857e+07 1.041415818522e+07 1.041153674901e+07 1.040910353801e+07 1.040684069637e+07 1.040473260536e+07 1.040276520952e+07 1.040092629480e+07 1.039920459648e+07 1.039759029150e+07 1.039607416918e+07 1.039464796775e+07 1.039330329548e+07 1.039203172350e+07 1.039082285480e+07 1.038966258283e+07 1.038852804361e+07 1.038737963343e+07 1.038614413235e+07 1.038468904610e+07 1.046699978673e+07 1.046310378728e+07 1.045680158940e+07 1.045068295850e+07 1.044503872983e+07 1.043988819541e+07 1.043519194738e+07 1.043090218246e+07 1.042697399665e+07 1.042336792179e+07 1.042004936397e+07 1.041698832446e+07 1.041415848974e+07 1.041153704402e+07 1.040910371348e+07 1.040684083535e+07 1.040473259025e+07 1.040276523161e+07 1.040092616263e+07 1.039920445312e+07 1.039759002441e+07 1.039607392473e+07 1.039464755362e+07 1.039330289190e+07 1.039203120835e+07 1.039082232773e+07 1.038966192766e+07 1.038852739137e+07 1.038737888501e+07 1.038614332632e+07 1.038468816608e+07 1.046700180960e+07 1.046310558710e+07 1.045680321609e+07 1.045068437590e+07 1.044504001990e+07 1.043988933068e+07 1.043519297415e+07 1.043090303425e+07 1.042697478628e+07 1.042336857332e+07 1.042004992964e+07 1.041698876246e+07 1.041415889306e+07 1.041153730098e+07 1.040910394147e+07 1.040684092282e+07 1.040473267104e+07 1.040276516562e+07 1.040092607366e+07 1.039920424734e+07 1.039758980972e+07 1.039607355924e+07 1.039464718725e+07 1.039330241925e+07 1.039203068511e+07 1.039082171275e+07 1.038966128164e+07 1.038852665351e+07 1.038737807608e+07 1.038614246797e+07 1.038468721797e+07 1.046700381970e+07 1.046310737098e+07 1.045680481858e+07 1.045068583120e+07 1.044504128975e+07 1.043989047942e+07 1.043519397594e+07 1.043090393148e+07 1.042697554079e+07 1.042336924677e+07 1.042005047804e+07 1.041698923023e+07 1.041415925097e+07 1.041153760805e+07 1.040910411876e+07 1.040684106593e+07 1.040473269763e+07 1.040276514642e+07 1.040092594980e+07 1.039920408621e+07 1.039758954062e+07 1.039607326186e+07 1.039464678177e+07 1.039330196848e+07 1.039203016479e+07 1.039082111880e+07 1.038966061852e+07 1.038852592751e+07 1.038737728990e+07 1.038614158815e+07 1.038468627739e+07 1.046700566883e+07 1.046310903165e+07 1.045680631569e+07 1.045068717212e+07 1.044504250120e+07 1.043989154427e+07 1.043519492902e+07 1.043090476185e+07 1.042697627235e+07 1.042336986412e+07 1.042005101002e+07 1.041698967053e+07 1.041415961895e+07 1.041153787075e+07 1.040910432630e+07 1.040684118864e+07 1.040473274782e+07 1.040276511294e+07 1.040092587715e+07 1.039920391925e+07 1.039758931890e+07 1.039607296935e+07 1.039464644551e+07 1.039330155043e+07 1.039202968192e+07 1.039082059109e+07 1.038966001755e+07 1.038852525516e+07 1.038737655529e+07 1.038614081395e+07 1.038468540764e+07 1.046700723792e+07 1.046311045627e+07 1.045680761368e+07 1.045068833567e+07 1.044504354271e+07 1.043989250050e+07 1.043519576478e+07 1.043090549404e+07 1.042697692030e+07 1.042337042843e+07 1.042005148930e+07 1.041699007305e+07 1.041415994383e+07 1.041153813561e+07 1.040910451021e+07 1.040684131395e+07 1.040473281997e+07 1.040276511157e+07 1.040092581225e+07 1.039920381039e+07 1.039758913765e+07 1.039607273653e+07 1.039464616144e+07 1.039330121040e+07 1.039202929050e+07 1.039082014153e+07 1.038965951871e+07 1.038852470247e+07 1.038737594660e+07 1.038614014798e+07 1.038468468639e+07 1.046700847344e+07 1.046311157053e+07 1.045680862982e+07 1.045068927236e+07 1.044504440159e+07 1.043989325692e+07 1.043519644282e+07 1.043090612052e+07 1.042697746898e+07 1.042337088986e+07 1.042005190545e+07 1.041699042334e+07 1.041416022394e+07 1.041153837103e+07 1.040910469021e+07 1.040684143686e+07 1.040473289591e+07 1.040276513886e+07 1.040092578783e+07 1.039920373922e+07 1.039758901721e+07 1.039607257449e+07 1.039464594759e+07 1.039330095982e+07 1.039202899780e+07 1.039081980809e+07 1.038965913920e+07 1.038852428800e+07 1.038737548454e+07 1.038613963993e+07 1.038468414378e+07 1.046700931644e+07 1.046311235332e+07 1.045680936326e+07 1.045068995070e+07 1.044504500225e+07 1.043989381921e+07 1.043519697620e+07 1.043090657939e+07 1.042697787368e+07 1.042337127185e+07 1.042005224299e+07 1.041699070071e+07 1.041416045319e+07 1.041153858605e+07 1.040910485137e+07 1.040684153906e+07 1.040473299128e+07 1.040276520007e+07 1.040092578799e+07 1.039920371344e+07 1.039758896386e+07 1.039607247962e+07 1.039464581577e+07 1.039330079777e+07 1.039202881589e+07 1.039081958369e+07 1.038965887625e+07 1.038852401591e+07 1.038737518052e+07 1.038613929319e+07 1.038468378545e+07 1.046700979985e+07 1.046311282076e+07 1.045680979395e+07 1.045069036179e+07 1.044504539265e+07 1.043989417759e+07 1.043519730196e+07 1.043090689523e+07 1.042697816745e+07 1.042337152969e+07 1.042005247330e+07 1.041699091039e+07 1.041416064756e+07 1.041153873406e+07 1.040910498067e+07 1.040684166116e+07 1.040473306831e+07 1.040276524604e+07 1.040092583111e+07 1.039920372789e+07 1.039758895120e+07 1.039607244111e+07 1.039464575968e+07 1.039330072322e+07 1.039202870769e+07 1.039081945859e+07 1.038965875230e+07 1.038852385162e+07 1.038737500611e+07 1.038613911773e+07 1.038468359242e+07 1.046700995482e+07 1.046311300255e+07 1.045680996641e+07 1.045069051393e+07 1.044504556695e+07 1.043989434630e+07 1.043519746162e+07 1.043090705413e+07 1.042697832627e+07 1.042337168377e+07 1.042005260727e+07 1.041699104963e+07 1.041416077776e+07 1.041153883556e+07 1.040910508287e+07 1.040684175435e+07 1.040473313322e+07 1.040276530796e+07 1.040092589055e+07 1.039920376258e+07 1.039758897476e+07 1.039607246500e+07 1.039464577105e+07 1.039330070705e+07 1.039202869386e+07 1.039081943526e+07 1.038965871344e+07 1.038852380424e+07 1.038737495673e+07 1.038613907250e+07 1.038468353291e+07 1.046700983288e+07 1.046311290396e+07 1.045680988751e+07 1.045069045110e+07 1.044504553760e+07 1.043989434016e+07 1.043519746263e+07 1.043090708351e+07 1.042697837480e+07 1.042337173282e+07 1.042005266906e+07 1.041699112045e+07 1.041416084249e+07 1.041153890154e+07 1.040910515122e+07 1.040684181795e+07 1.040473319186e+07 1.040276536977e+07 1.040092594520e+07 1.039920381744e+07 1.039758903836e+07 1.039607251926e+07 1.039464582686e+07 1.039330076868e+07 1.039202874064e+07 1.039081949213e+07 1.038965876085e+07 1.038852385749e+07 1.038737501198e+07 1.038613911908e+07 1.038468358934e+07 1.046700949342e+07 1.046311244922e+07 1.045680951795e+07 1.045069019415e+07 1.044504531906e+07 1.043989419661e+07 1.043519739623e+07 1.043090702248e+07 1.042697833341e+07 1.042337173718e+07 1.042005268165e+07 1.041699112911e+07 1.041416087212e+07 1.041153894497e+07 1.040910518490e+07 1.040684184637e+07 1.040473324103e+07 1.040276541846e+07 1.040092598486e+07 1.039920388193e+07 1.039758910898e+07 1.039607259257e+07 1.039464591078e+07 1.039330087647e+07 1.039202885522e+07 1.039081961503e+07 1.038965891202e+07 1.038852401518e+07 1.038737517002e+07 1.038613926608e+07 1.038468370464e+07 1.046700731569e+07 1.046311147229e+07 1.045680902648e+07 1.045068990540e+07 1.044504517931e+07 1.043989410931e+07 1.043519730867e+07 1.043090698848e+07 1.042697832595e+07 1.042337170971e+07 1.042005267428e+07 1.041699114600e+07 1.041416087487e+07 1.041153894200e+07 1.040910520232e+07 1.040684187013e+07 1.040473324612e+07 1.040276543441e+07 1.040092601984e+07 1.039920390272e+07 1.039758913687e+07 1.039607264603e+07 1.039464597092e+07 1.039330093791e+07 1.039202895459e+07 1.039081974075e+07 1.038965907462e+07 1.038852425582e+07 1.038737551923e+07 1.038613977832e+07 1.038468447665e+07 
        </DataArray>
        <DataArray type="Float64" Name="STRAIN_XX" format="ascii">
          -3.876275217031e-04 -3.602896280762e-04 -3.355005132062e-04 -3.129324822747e-04 -2.923259793012e-04 -2.734596395291e-04 -2.561427991673e-04 -2.402102935607e-04 -2.255184131450e-04 -2.119416279800e-04 -1.993698927454e-04 -1.877064094327e-04 -1.768657572436e-04 -1.667723264764e-04 -1.573589954276e-04 -1.485660133340e-04 -1.403400487875e-04 -1.326333812463e-04 -1.254032055388e-04 -1.186110389508e-04 -1.122222056790e-04 -1.062053974508e-04 -1.005322867015e-04 -9.517719929236e-05 -9.011682473277e-05 -8.532997602801e-05 -8.079738440344e-05 -7.650154817821e-05 -7.242663572261e-05 -6.855848880469e-05 -6.488451554689e-05 -3.793493482985e-04 -3.525370527027e-04 -3.282247526423e-04 -3.060908446910e-04 -2.858807370669e-04 -2.673773167421e-04 -2.503935867023e-04 -2.347675598580e-04 -2.203582910090e-04 -2.070426658020e-04 -1.947127560644e-04 -1.832736259868e-04 -1.726414982169e-04 -1.627422178574e-04 -1.535099542831e-04 -1.448861063908e-04 -1.368183685986e-04 -1.292599386625e-04 -1.221688346773e-04 -1.155073141690e-04 -1.092413687254e-04 -1.033402920143e-04 -9.777630169157e-05 -9.252421744172e-05 -8.756117763158e-05 -8.286640276341e-05 -7.842099580211e-05 -7.420779289971e-05 -7.021127002546e-05 -6.641754634143e-05 -6.281428310944e-05 -3.548329532421e-04 -3.295772531928e-04 -3.066770741382e-04 -2.858288520929e-04 -2.667926972400e-04 -2.493640887129e-04 -2.333668886558e-04 -2.186485196803e-04 -2.050762255821e-04 -1.925340439465e-04 -1.809203174544e-04 -1.701456252906e-04 -1.601310577305e-04 -1.508067670037e-04 -1.421107478606e-04 -1.339878024795e-04 -1.263886649096e-04 -1.192692505560e-04 -1.125900174542e-04 -1.063154146741e-04 -1.004134100474e-04 -9.485508041533e-05 -8.961425808696e-05 -8.466722504237e-05 -7.999244854859e-05 -7.557035710750e-05 -7.138315350769e-05 -6.741467502670e-05 -6.365030813310e-05 -6.007699478161e-05 -5.668314374232e-05 -3.150204859787e-04 -2.922925605008e-04 -2.716855421503e-04 -2.529251612636e-04 -2.357954025908e-04 -2.201121939026e-04 -2.057170317313e-04 -1.924726196785e-04 -1.802594986130e-04 -1.689733215028e-04 -1.585226134790e-04 -1.488269102480e-04 -1.398152055967e-04 -1.314246479064e-04 -1.235994420605e-04 -1.162899186591e-04 -1.094517460158e-04 -1.030452548107e-04 -9.703486337374e-05 -9.138858098136e-05 -8.607758417392e-05 -8.107584560730e-05 -7.635981963478e-05 -7.190816266116e-05 -6.770150073553e-05 -6.372222262995e-05 -5.995431890661e-05 -5.638325100672e-05 -5.299588527342e-05 -4.978049842968e-05 -4.672671462121e-05 -2.614419147587e-04 -2.421158029273e-04 -2.245948607015e-04 -2.086442423890e-04 -1.940800615820e-04 -1.807457667637e-04 -1.685065851697e-04 -1.572457857733e-04 -1.468618039557e-04 -1.372659250445e-04 -1.283803765269e-04 -1.201367483508e-04 -1.124746700394e-04 -1.053407060192e-04 -9.868741744282e-05 -9.247257615691e-05 -8.665848972836e-05 -8.121143218631e-05 -7.610114949618e-05 -7.130044480622e-05 -6.678480984532e-05 -6.253211787899e-05 -5.852234774711e-05 -5.473735599936e-05 -5.116066912544e-05 -4.777731865621e-05 -4.457369622538e-05 -4.153745419581e-05 -3.865744557445e-05 -3.592374747099e-05 -3.332761679794e-05 -1.961562312596e-04 -1.809752432591e-04 -1.672146974740e-04 -1.546877853716e-04 -1.432497719598e-04 -1.327776373098e-04 -1.231655264893e-04 -1.143217661110e-04 -1.061665980045e-04 -9.863035318079e-05 -9.165195767250e-05 -8.517768764803e-05 -7.916013489230e-05 -7.355733365068e-05 -6.833203125632e-05 -6.345106332219e-05 -5.888483064955e-05 -5.460684480952e-05 -5.059334933757e-05 -4.682298272050e-05 -4.327650017023e-05 -3.993652257254e-05 -3.678732941347e-05 -3.381467006446e-05 -3.100561109570e-05 -2.834839943882e-05 -2.583235690167e-05 -2.344780080920e-05 -2.118600941849e-05 -1.903925018687e-05 -1.700077148795e-05 -1.216723252193e-04 -1.112204775860e-04 -1.017501387021e-04 -9.312930706656e-05 -8.525791291040e-05 -7.805119448150e-05 -7.143628748840e-05 -6.535010838594e-05 -5.973777517924e-05 -5.455135075490e-05 -4.974881036321e-05 -4.529318737733e-05 -4.115185924294e-05 -3.729595038190e-05 -3.369982469675e-05 -3.034066286540e-05 -2.719809495784e-05 -2.425389506906e-05 -2.149171357269e-05 -1.889685255818e-05 -1.645606663203e-05 -1.415739881654e-05 -1.199002935159e-05 -9.944154168785e-06 -8.010875006908e-06 -6.182109462871e-06 -4.450520580052e-06 -2.809468049051e-06 -1.252995261506e-06 2.241302837627e-07 1.626388503515e-06 -4.085257007047e-05 -3.553214143856e-05 -3.071695073676e-05 -2.633446458189e-05 -2.233307959844e-05 -1.866954492906e-05 -1.530679485182e-05 -1.221276585361e-05 -9.359570238502e-06 -6.722849740576e-06 -4.281250139329e-06 -2.015986639543e-06 8.951820489547e-08 2.049939307706e-06 3.878304159515e-06 5.586211035760e-06 7.184011749969e-06 8.680970395086e-06 1.008539622194e-05 1.140476044095e-05 1.264579440453e-05 1.381457655437e-05 1.491660448372e-05 1.595686050788e-05 1.693986350152e-05 1.786971245649e-05 1.875011956740e-05 1.958442389762e-05 2.037558152497e-05 2.112611200337e-05 2.183803121290e-05 4.319717633714e-05 4.318110487674e-05 4.315510117492e-05 4.312985329404e-05 4.310656235906e-05 4.308530755365e-05 4.306592686024e-05 4.304822289946e-05 4.303201079956e-05 4.301712742721e-05 4.300343027648e-05 4.299079563332e-05 4.297911519868e-05 4.296829406619e-05 4.295824949227e-05 4.294890811132e-05 4.294020473899e-05 4.293208251079e-05 4.292448994602e-05 4.291738131640e-05 4.291071553931e-05 4.290445522806e-05 4.289856548799e-05 4.289301263029e-05 4.288776097834e-05 4.288276836799e-05 4.287797613859e-05 4.287329004120e-05 4.286854668001e-05 4.286344393530e-05 4.285743435499e-05 1.272469281104e-04 1.218943544953e-04 1.170271550361e-04 1.125941720933e-04 1.085462036995e-04 1.048401590764e-04 1.014386469848e-04 9.830920938945e-05 9.542358935276e-05 9.275710175777e-05 9.028810781872e-05 8.799757474553e-05 8.586870860525e-05 8.388664559926e-05 8.203819135722e-05 8.031160136450e-05 7.869639435847e-05 7.718319105344e-05 7.576358002665e-05 7.442999866236e-05 7.317563322467e-05 7.199433051542e-05 7.088052311298e-05 6.982916125365e-05 6.883565544622e-05 6.789582114399e-05 6.700582933776e-05 6.616215348698e-05 6.536150893658e-05 6.460077280044e-05 6.387683484112e-05 2.080666982677e-04 1.975827003513e-04 1.880603483573e-04 1.793890164943e-04 1.714710364894e-04 1.642218055659e-04 1.575681350704e-04 1.514465460461e-04 1.458017874021e-04 1.405855950540e-04 1.357556596969e-04 1.312747665919e-04 1.271100769960e-04 1.232325253912e-04 1.196163105608e-04 1.162384651954e-04 1.130784909640e-04 1.101180463380e-04 1.073406799093e-04 1.047316015276e-04 1.022774846270e-04 9.996629600833e-05 9.778714752217e-05 9.573016682064e-05 9.378638454490e-05 9.194763434398e-05 9.020646088929e-05 8.855603688729e-05 8.699007737984e-05 8.550274674638e-05 8.408846981379e-05 2.825506257502e-04 2.673374798822e-04 2.535249148635e-04 2.409474977018e-04 2.294628942235e-04 2.189482441467e-04 2.092973671991e-04 2.004181950818e-04 1.922305997062e-04 1.846645861469e-04 1.776587944788e-04 1.711592538167e-04 1.651183386503e-04 1.594938949178e-04 1.542485023651e-04 1.493488512735e-04 1.447652116350e-04 1.404709816864e-04 1.364423005919e-04 1.326577174939e-04 1.290979034338e-04 1.257454059922e-04 1.225844334836e-04 1.196006691452e-04 1.167811074163e-04 1.141139112888e-04 1.115882844210e-04 1.091943573518e-04 1.069230795536e-04 1.047661153719e-04 1.027156187472e-04 3.478363330750e-04 3.284780548571e-04 3.109050865266e-04 2.949039574021e-04 2.802931825250e-04 2.669163685112e-04 2.546384179777e-04 2.433422044267e-04 2.329257939934e-04 2.233001445161e-04 2.143871991643e-04 2.061182991168e-04 1.984328584162e-04 1.912772507724e-04 1.846038722312e-04 1.783703472210e-04 1.725388544244e-04 1.670755516533e-04 1.619500844519e-04 1.571351625812e-04 1.526061968896e-04 1.483409846363e-04 1.443194363070e-04 1.405233392771e-04 1.369361504464e-04 1.335428154446e-04 1.303296095966e-04 1.272839964626e-04 1.243945021779e-04 1.216505994092e-04 1.190424515455e-04 4.014149256256e-04 3.786548257921e-04 3.579957750917e-04 3.391848784185e-04 3.220085213365e-04 3.062827904525e-04 2.918488566244e-04 2.785690285141e-04 2.663234768472e-04 2.550075281689e-04 2.445294220869e-04 2.348084464015e-04 2.257733784577e-04 2.173611771776e-04 2.095158807615e-04 2.021876737228e-04 1.953320942838e-04 1.889093584303e-04 1.828837819106e-04 1.772232829958e-04 1.718989551815e-04 1.668846971135e-04 1.621568926090e-04 1.576941312926e-04 1.534769672104e-04 1.494877055898e-04 1.457102181433e-04 1.421297802122e-04 1.387329287243e-04 1.355073381039e-04 1.324415375147e-04 4.412274073192e-04 4.159395268642e-04 3.929873106662e-04 3.720885693281e-04 3.530058134043e-04 3.355346803720e-04 3.194987069478e-04 3.047449204622e-04 2.911401944850e-04 2.785682401716e-04 2.669271148486e-04 2.561271496246e-04 2.460892181210e-04 2.367432835224e-04 2.280271735224e-04 2.198855443327e-04 2.122689998209e-04 2.051333409083e-04 1.984389228226e-04 1.921501034791e-04 1.862347682802e-04 1.806639190982e-04 1.754113187548e-04 1.704531814361e-04 1.657679035200e-04 1.613358285405e-04 1.571390421055e-04 1.531611936067e-04 1.493873417707e-04 1.458038247300e-04 1.423979575855e-04 4.657438065411e-04 4.388993256572e-04 4.145349879868e-04 3.923505603712e-04 3.720938510990e-04 3.535479054639e-04 3.365254011733e-04 3.208639557276e-04 3.064222543166e-04 2.930768555664e-04 2.807195464163e-04 2.692551425545e-04 2.585996507233e-04 2.486787258477e-04 2.394263714375e-04 2.307838393120e-04 2.226986948314e-04 2.151240199619e-04 2.080177312322e-04 2.013419941427e-04 1.950627183070e-04 1.891491220624e-04 1.835733541160e-04 1.783101658252e-04 1.733366249934e-04 1.686318671105e-04 1.641768780678e-04 1.599543056735e-04 1.559482985329e-04 1.521443715062e-04 1.485290916435e-04 4.740219521452e-04 4.466518957564e-04 4.218107476855e-04 3.991921978354e-04 3.785390929705e-04 3.596302273190e-04 3.422746121366e-04 3.263066876094e-04 3.115823741444e-04 2.979758150360e-04 2.853766801425e-04 2.736879229011e-04 2.628239063561e-04 2.527088310352e-04 2.432754090885e-04 2.344637426841e-04 2.262203713454e-04 2.184974589526e-04 2.112520985747e-04 2.044457152616e-04 1.980435517652e-04 1.920142238968e-04 1.863293356218e-04 1.809631441464e-04 1.758922688526e-04 1.710954373221e-04 1.665532640230e-04 1.622480590228e-04 1.581636638218e-04 1.542853160636e-04 1.505993320015e-04 
        </DataArray>
        <DataArray type="Float64" Name="STRAIN_XY" format="ascii">
          -3.177741375593e-07 -2.054131062537e-07 -1.733337575834e-07 -1.581812534151e-07 -1.478578978330e-07 -1.393117486992e-07 -1.317031595584e-07 -1.247607802462e-07 -1.183689064858e-07 -1.124592256756e-07 -1.069810696264e-07 -1.018926454641e-07 -9.715749763343e-08 -9.274373628008e-08 -8.862285983766e-08 -8.476980387177e-08 -8.116136234229e-08 -7.777747661711e-08 -7.459879860508e-08 -7.160780331735e-08 -6.878592635259e-08 -6.611294281136e-08 -6.356097206788e-08 -6.108652771692e-08 -5.861184058339e-08 -5.598865424066e-08 -5.292672951607e-08 -4.885504819295e-08 -4.265291738209e-08 -3.214080694793e-08 -1.282922718895e-08 -1.680994389892e-04 -1.574264554089e-04 -1.477440795648e-04 -1.389286222783e-04 -1.308792784229e-04 -1.235097063773e-04 -1.167454502480e-04 -1.105219886474e-04 -1.047831767127e-04 -9.947997176237e-05 -9.456938062790e-05 -9.001358604758e-05 -8.577921666279e-05 -8.183673365907e-05 -7.815991563351e-05 -7.472541955942e-05 -7.151241226205e-05 -6.850225072758e-05 -6.567821418875e-05 -6.302526853543e-05 -6.052986920536e-05 -5.817978436722e-05 -5.596394873214e-05 -5.387233079980e-05 -5.189582184762e-05 -5.002613811494e-05 -4.825573909016e-05 -4.657775842549e-05 -4.498595611292e-05 -4.347468888840e-05 -4.203883129355e-05 -3.297389167571e-04 -3.088031043128e-04 -2.898104396909e-04 -2.725182969795e-04 -2.567289397580e-04 -2.422730038431e-04 -2.290044372432e-04 -2.167966777147e-04 -2.055395930246e-04 -1.951369818463e-04 -1.855045107154e-04 -1.765679981027e-04 -1.682619834107e-04 -1.605285251297e-04 -1.533161864963e-04 -1.465791806261e-04 -1.402766395398e-04 -1.343719957983e-04 -1.288324482416e-04 -1.236285089850e-04 -1.187336063653e-04 -1.141237496474e-04 -1.097772315441e-04 -1.056743753697e-04 -1.017973135341e-04 -9.812979729285e-05 -9.465703433014e-05 -9.136555739843e-05 -8.824312421986e-05 -8.527866757023e-05 -8.246213099602e-05 -4.787067233627e-04 -4.483126303907e-04 -4.207395516638e-04 -3.956352485198e-04 -3.727126526626e-04 -3.517258846249e-04 -3.324629104642e-04 -3.147399893269e-04 -2.983972345015e-04 -2.832949834464e-04 -2.693108021171e-04 -2.563369962581e-04 -2.442785318666e-04 -2.330512900131e-04 -2.225805974012e-04 -2.127999802744e-04 -2.036501091748e-04 -1.950778945921e-04 -1.870357186437e-04 -1.794807692428e-04 -1.723744726903e-04 -1.656819977238e-04 -1.593718315692e-04 -1.534154075697e-04 -1.477867863297e-04 -1.424623778334e-04 -1.374207078169e-04 -1.326422236548e-04 -1.281091538025e-04 -1.238054292552e-04 -1.197164523452e-04 -6.092781123703e-04 -5.705937623783e-04 -5.354998840011e-04 -5.035481623833e-04 -4.743732279931e-04 -4.476621361533e-04 -4.231450178738e-04 -4.005880164899e-04 -3.797876334409e-04 -3.605661126184e-04 -3.427676250732e-04 -3.262551017379e-04 -3.109075869434e-04 -2.966180185296e-04 -2.832913540771e-04 -2.708429898728e-04 -2.591974123059e-04 -2.482870530459e-04 -2.380513041581e-04 -2.284356778956e-04 -2.193910776139e-04 -2.108731730784e-04 -2.028418546169e-04 -1.952607651098e-04 -1.880968889430e-04 -1.813202026778e-04 -1.749033735415e-04 -1.688215173849e-04 -1.630520133882e-04 -1.575744113729e-04 -1.523701308899e-04 -7.164352983536e-04 -6.709473048569e-04 -6.296812617238e-04 -5.921100053694e-04 -5.578039068896e-04 -5.263949816372e-04 -4.975658976155e-04 -4.710416669360e-04 -4.465830025284e-04 -4.239808834943e-04 -4.030520750417e-04 -3.836354006741e-04 -3.655886321620e-04 -3.487858763588e-04 -3.331153767090e-04 -3.184776483498e-04 -3.047838981230e-04 -2.919546721854e-04 -2.799187049808e-04 -2.686119244064e-04 -2.579765998395e-04 -2.479606032698e-04 -2.385167724209e-04 -2.296023539333e-04 -2.211785269969e-04 -2.132099866373e-04 -2.056645943870e-04 -1.985130875602e-04 -1.917288689313e-04 -1.852878902778e-04 -1.791683038338e-04 -7.960602877863e-04 -7.455167256025e-04 -6.996643457278e-04 -6.579173952244e-04 -6.197984949588e-04 -5.848987626135e-04 -5.528655968335e-04 -5.233934483383e-04 -4.962164337652e-04 -4.711023032009e-04 -4.478474556519e-04 -4.262728021129e-04 -4.062203062204e-04 -3.875500839491e-04 -3.701379568762e-04 -3.538733846146e-04 -3.386577038398e-04 -3.244026319855e-04 -3.110289815341e-04 -2.984655600618e-04 -2.866482203331e-04 -2.755190416628e-04 -2.650256185519e-04 -2.551204477371e-04 -2.457603925494e-04 -2.369062251721e-04 -2.285222340882e-04 -2.205759057638e-04 -2.130376858216e-04 -2.058808536749e-04 -1.990811340178e-04 -8.450931317084e-04 -7.914363602274e-04 -7.427597236876e-04 -6.984413896745e-04 -6.579745751825e-04 -6.209252119504e-04 -5.869189808128e-04 -5.556315116119e-04 -5.267805447455e-04 -5.001195236940e-04 -4.754323079461e-04 -4.525287766397e-04 -4.312411596469e-04 -4.114209564887e-04 -3.929363406627e-04 -3.756699620815e-04 -3.595170814966e-04 -3.443839774761e-04 -3.301865858625e-04 -3.168493285779e-04 -3.043041076936e-04 -2.924894344017e-04 -2.813496761539e-04 -2.708344026370e-04 -2.608978212149e-04 -2.514982871441e-04 -2.425978897358e-04 -2.341621125137e-04 -2.261595808144e-04 -2.185619284516e-04 -2.113433845432e-04 -8.616495195465e-04 -8.069415388971e-04 -7.573112620043e-04 -7.121246735974e-04 -6.708650617472e-04 -6.330898543151e-04 -5.984173981056e-04 -5.665169684334e-04 -5.371007752822e-04 -5.099174322744e-04 -4.847465638056e-04 -4.613943245857e-04 -4.396896574751e-04 -4.194811529733e-04 -4.006344013541e-04 -3.830297540226e-04 -3.665604195341e-04 -3.511308402886e-04 -3.366553049640e-04 -3.230567553711e-04 -3.102657589380e-04 -2.982196224939e-04 -2.868616232808e-04 -2.761403435154e-04 -2.660090928861e-04 -2.564254109547e-04 -2.473506444916e-04 -2.387496006434e-04 -2.305902900598e-04 -2.228437906440e-04 -2.154838274675e-04 -8.450931929168e-04 -7.914364027551e-04 -7.427597510355e-04 -6.984414048548e-04 -6.579745805894e-04 -6.209252094473e-04 -5.869189720337e-04 -5.556314979293e-04 -5.267805267298e-04 -5.001195023980e-04 -4.754322838037e-04 -4.525287502062e-04 -4.312411313708e-04 -4.114209267806e-04 -3.929363097239e-04 -3.756699303376e-04 -3.595170489039e-04 -3.443839446061e-04 -3.301865524906e-04 -3.168492950321e-04 -3.043040739388e-04 -2.924894005545e-04 -2.813496419854e-04 -2.708343686233e-04 -2.608977869969e-04 -2.514982529080e-04 -2.425978554444e-04 -2.341620781403e-04 -2.261595463813e-04 -2.185618938521e-04 -2.113433503593e-04 -7.960603990738e-04 -7.455168029577e-04 -6.996643956065e-04 -6.579174227916e-04 -6.197985049007e-04 -5.848987581934e-04 -5.528655809265e-04 -5.233934228448e-04 -4.962164009438e-04 -4.711022641325e-04 -4.478474115229e-04 -4.262727538289e-04 -4.062202546677e-04 -3.875500295649e-04 -3.701379004875e-04 -3.538733263925e-04 -3.386576445747e-04 -3.244025717124e-04 -3.110289205511e-04 -2.984654985697e-04 -2.866481586033e-04 -2.755189794884e-04 -2.650255563166e-04 -2.551203851739e-04 -2.457603300196e-04 -2.369061622533e-04 -2.285221712322e-04 -2.205758427748e-04 -2.130376227148e-04 -2.058807904182e-04 -1.990810712002e-04 -7.164354389958e-04 -6.709474030112e-04 -6.296813248519e-04 -5.921100405782e-04 -5.578039196626e-04 -5.263949760057e-04 -4.975658768280e-04 -4.710416346961e-04 -4.465829602115e-04 -4.239808331119e-04 -4.030520182561e-04 -3.836353387183e-04 -3.655885658539e-04 -3.487858065785e-04 -3.331153043013e-04 -3.184775740311e-04 -3.047838217296e-04 -2.919545947749e-04 -2.799186268459e-04 -2.686118452962e-04 -2.579765202609e-04 -2.479605234577e-04 -2.385166920087e-04 -2.296022733604e-04 -2.211784461019e-04 -2.132099055992e-04 -2.056645130894e-04 -1.985130060852e-04 -1.917287873261e-04 -1.852878085581e-04 -1.791682226526e-04 -6.092782572629e-04 -5.705938631497e-04 -5.354999491495e-04 -5.035481984873e-04 -4.743732408001e-04 -4.476621297655e-04 -4.231449961812e-04 -4.005879818661e-04 -3.797875885085e-04 -3.605660594251e-04 -3.427675648618e-04 -3.262550360283e-04 -3.109075168785e-04 -2.966179446530e-04 -2.832912775764e-04 -2.708429109507e-04 -2.591973317058e-04 -2.482869710497e-04 -2.380512210870e-04 -2.284355937676e-04 -2.193909931127e-04 -2.108730877237e-04 -2.028417691709e-04 -1.952606790941e-04 -1.880968027388e-04 -1.813201160742e-04 -1.749032868263e-04 -1.688214302732e-04 -1.630519261749e-04 -1.575743240325e-04 -1.523700437717e-04 -4.787068463677e-04 -4.483127158427e-04 -4.207396065428e-04 -3.956352789488e-04 -3.727126626885e-04 -3.517258782011e-04 -3.324628904121e-04 -3.147399580541e-04 -2.983971941207e-04 -2.832949353613e-04 -2.693107479041e-04 -2.563369370765e-04 -2.442784684740e-04 -2.330512235261e-04 -2.225805282053e-04 -2.127999091670e-04 -2.036500361120e-04 -1.950778206054e-04 -1.870356433114e-04 -1.794806933124e-04 -1.723743959468e-04 -1.656819206433e-04 -1.593717536183e-04 -1.534153295381e-04 -1.477867075594e-04 -1.424622989405e-04 -1.374206283130e-04 -1.326421441015e-04 -1.281090737753e-04 -1.238053488770e-04 -1.197163720906e-04 -3.297389960713e-04 -3.088031591642e-04 -2.898104750008e-04 -2.725183159599e-04 -2.567289451043e-04 -2.422729978930e-04 -2.290044216817e-04 -2.167966539241e-04 -2.055395624544e-04 -1.951369457619e-04 -1.855044697930e-04 -1.765679533937e-04 -1.682619358325e-04 -1.605284747073e-04 -1.533161343847e-04 -1.465791266750e-04 -1.402765845700e-04 -1.343719396872e-04 -1.288323916012e-04 -1.236284517404e-04 -1.187335486393e-04 -1.141236915344e-04 -1.097771728249e-04 -1.056743162106e-04 -1.017972539874e-04 -9.812973702508e-05 -9.465697390383e-05 -9.136549616692e-05 -8.824306272511e-05 -8.527860513405e-05 -8.246206832996e-05 -1.680994594457e-04 -1.574264724159e-04 -1.477440924571e-04 -1.389286290492e-04 -1.308792788299e-04 -1.235097010567e-04 -1.167454397680e-04 -1.105219738539e-04 -1.047831583982e-04 -9.947995044059e-05 -9.456935682513e-05 -9.001356043435e-05 -8.577918934640e-05 -8.183670523672e-05 -7.815988608732e-05 -7.472538960091e-05 -7.151238147519e-05 -6.850221977518e-05 -6.567818313999e-05 -6.302523718091e-05 -6.052983795448e-05 -5.817975296145e-05 -5.596391734807e-05 -5.387229903944e-05 -5.189579009892e-05 -5.002610616660e-05 -4.825570638960e-05 -4.657772538047e-05 -4.498592139856e-05 -4.347465266388e-05 -4.203879326999e-05 -3.177545210288e-07 -2.054016908544e-07 -1.733228382495e-07 -1.581708053479e-07 -1.478479274726e-07 -1.393024097274e-07 -1.316945422037e-07 -1.247527200081e-07 -1.183614572259e-07 -1.124524225426e-07 -1.069747448853e-07 -1.018867960008e-07 -9.715231392332e-08 -9.273886137098e-08 -8.861857015536e-08 -8.476584366925e-08 -8.115787481051e-08 -7.777427919551e-08 -7.459591685325e-08 -7.160522741855e-08 -6.878357770838e-08 -6.611098020626e-08 -6.355923303746e-08 -6.108529212868e-08 -5.861083434584e-08 -5.598794691768e-08 -5.292645746260e-08 -4.885476069137e-08 -4.265289186548e-08 -3.214035017982e-08 -1.282706296863e-08 
        </DataArray>
        <DataArray type="Float64" Name="STRAIN_YY" format="ascii">
          4.740217581214e-04 4.466517121259e-04 4.218105837207e-04 3.991920537037e-04 3.785389673156e-04 3.596301185460e-04 3.422745187236e-04 3.263066081829e-04 3.115823075197e-04 2.979757602172e-04 2.853766362569e-04 2.736878891313e-04 2.628238821410e-04 2.527088157780e-04 2.432754023524e-04 2.344637440572e-04 2.262203805230e-04 2.184974755977e-04 2.112521224987e-04 2.044457462549e-04 1.980435896642e-04 1.920142685477e-04 1.863293868359e-04 1.809632017400e-04 1.758923326889e-04 1.710955071079e-04 1.665533396449e-04 1.622481400523e-04 1.581637497453e-04 1.542854058772e-04 1.505994236296e-04 4.657435868222e-04 4.388991386467e-04 4.145348249516e-04 3.923504176755e-04 3.720937264217e-04 3.535477970000e-04 3.365253073882e-04 3.208638753386e-04 3.064221862285e-04 2.930767988013e-04 2.807195001560e-04 2.692551061873e-04 2.585996235710e-04 2.486787074826e-04 2.394263613790e-04 2.307838372770e-04 2.226987004104e-04 2.151240330000e-04 2.080177514748e-04 2.013420213926e-04 1.950627524068e-04 1.891491628394e-04 1.835734014390e-04 1.783102195233e-04 1.733366849835e-04 1.686319333217e-04 1.641769503230e-04 1.599543840905e-04 1.559483831222e-04 1.521444626852e-04 1.485291902384e-04 4.412271981565e-04 4.159393447760e-04 3.929871515033e-04 3.720884296821e-04 3.530056906312e-04 3.355345725374e-04 3.194986124489e-04 3.047448380284e-04 2.911401231309e-04 2.785681791008e-04 2.669270633004e-04 2.561271070627e-04 2.460891841502e-04 2.367432576329e-04 2.280271555316e-04 2.198855338510e-04 2.122689967321e-04 2.051333449323e-04 1.984389338874e-04 1.921501213842e-04 1.862347929269e-04 1.806639504053e-04 1.754113565848e-04 1.704532258029e-04 1.657679543635e-04 1.613358858700e-04 1.571391060026e-04 1.531612640647e-04 1.493874188866e-04 1.458039084568e-04 1.423980480958e-04 4.014147410375e-04 3.786546611875e-04 3.579956276180e-04 3.391847461205e-04 3.220084023826e-04 3.062826834825e-04 2.918487605703e-04 2.785689424157e-04 2.663234000571e-04 2.550074600052e-04 2.445293621749e-04 2.348083943547e-04 2.257733339565e-04 2.173611399981e-04 2.095158507325e-04 2.021876507079e-04 1.953320780860e-04 1.889093490988e-04 1.828837792301e-04 1.772232869580e-04 1.718989657094e-04 1.668847141959e-04 1.621569161161e-04 1.576941613809e-04 1.534770038228e-04 1.494877487580e-04 1.457102679630e-04 1.421298367176e-04 1.387329919541e-04 1.355074080792e-04 1.324416143807e-04 3.478361831115e-04 3.284779154973e-04 3.109049568631e-04 2.949038365251e-04 2.802930699218e-04 2.669162637543e-04 2.546383206683e-04 2.433421141720e-04 2.329257105891e-04 2.233000678710e-04 2.143871289599e-04 2.061182354374e-04 1.984328010920e-04 1.912771998206e-04 1.846038275978e-04 1.783703088889e-04 1.725388223440e-04 1.670755259792e-04 1.619500649453e-04 1.571351494121e-04 1.526061900291e-04 1.483409840373e-04 1.443194420841e-04 1.405233514541e-04 1.369361690654e-04 1.335428406323e-04 1.303296413535e-04 1.272840348733e-04 1.243945473107e-04 1.216506514206e-04 1.190425105118e-04 2.825505152135e-04 2.673373697573e-04 2.535248058310e-04 2.409473907434e-04 2.294627900472e-04 2.189481430497e-04 2.092972695470e-04 2.004181015853e-04 1.922305103578e-04 1.846645011067e-04 1.776587143275e-04 1.711591785801e-04 1.651182684584e-04 1.594938298870e-04 1.542484428596e-04 1.493487972013e-04 1.447651631405e-04 1.404709387847e-04 1.364422636958e-04 1.326576861430e-04 1.290978781495e-04 1.257453867132e-04 1.225844203323e-04 1.196006621881e-04 1.167811067837e-04 1.141139170645e-04 1.115882966220e-04 1.091943761030e-04 1.069231049773e-04 1.047661474835e-04 1.027156579382e-04 2.080666258700e-04 1.975826189398e-04 1.880602604857e-04 1.793889241375e-04 1.714709416461e-04 1.642217095919e-04 1.575680390211e-04 1.514464508909e-04 1.458016940501e-04 1.405855040585e-04 1.357555716872e-04 1.312746819246e-04 1.271099961380e-04 1.232324487392e-04 1.196162381819e-04 1.162383974665e-04 1.130784281157e-04 1.101179884995e-04 1.073406271966e-04 1.047315542823e-04 1.022774428392e-04 9.996625994046e-05 9.778711724639e-05 9.573014239118e-05 9.378636637606e-05 9.194762201257e-05 9.020645496819e-05 8.855603725265e-05 8.699008414347e-05 8.550275992804e-05 8.408849012103e-05 1.272468873124e-04 1.218942975165e-04 1.170270857473e-04 1.125940936648e-04 1.085461188154e-04 1.048400695211e-04 1.014385546532e-04 9.830911576422e-05 9.542349533710e-05 9.275700860281e-05 9.028801598981e-05 8.799748504779e-05 8.586862164441e-05 8.388656158415e-05 8.203811078900e-05 8.031152474651e-05 7.869632162727e-05 7.718312287699e-05 7.576351637956e-05 7.442993995314e-05 7.317557958155e-05 7.199428211493e-05 7.088048006427e-05 6.982912399383e-05 6.883562357292e-05 6.789579519076e-05 6.700580934738e-05 6.616213931359e-05 6.536150086783e-05 6.460077094648e-05 6.387683964812e-05 4.319715616751e-05 4.318106490828e-05 4.315504619266e-05 4.312978685678e-05 4.310648685720e-05 4.308522582760e-05 4.306584080787e-05 4.304813386505e-05 4.303192033733e-05 4.301703653056e-05 4.300333996499e-05 4.299070640917e-05 4.297902768791e-05 4.296820899399e-05 4.295816716928e-05 4.294882868377e-05 4.294012905254e-05 4.293201048495e-05 4.292442205582e-05 4.291731769964e-05 4.291065661669e-05 4.290440102692e-05 4.289851628444e-05 4.289296842087e-05 4.288772211051e-05 4.288273492359e-05 4.287794781583e-05 4.287326762045e-05 4.286852964933e-05 4.286343262426e-05 4.285742932710e-05 -4.085258265463e-05 -3.553217295147e-05 -3.071699695497e-05 -2.633452233855e-05 -2.233314588665e-05 -1.866961780242e-05 -1.530687241833e-05 -1.221284658147e-05 -9.359652867768e-06 -6.722933142169e-06 -4.281333621346e-06 -2.016069380704e-06 8.943696290053e-08 2.049859647000e-06 3.878226822308e-06 5.586136464902e-06 7.183940028595e-06 8.680901930930e-06 1.008533143957e-05 1.140469945513e-05 1.264573743527e-05 1.381452381788e-05 1.491655631476e-05 1.595681699095e-05 1.693982441188e-05 1.786967843693e-05 1.875009049924e-05 1.958439961277e-05 2.037556236865e-05 2.112609826222e-05 2.183802288782e-05 -1.216723426139e-04 -1.112205096104e-04 -1.017501818889e-04 -9.312935900816e-05 -8.525797158732e-05 -7.805125804847e-05 -7.143635490746e-05 -6.535017806725e-05 -5.973784638829e-05 -5.455142262975e-05 -4.974888206463e-05 -4.529325833578e-05 -4.115192911583e-05 -3.729601820170e-05 -3.369989089559e-05 -3.034072635147e-05 -2.719815595012e-05 -2.425395312843e-05 -2.149176864470e-05 -1.889690399750e-05 -1.645611496114e-05 -1.415744301251e-05 -1.199006985952e-05 -9.944190644354e-06 -8.010907102723e-06 -6.182137515298e-06 -4.450544184786e-06 -2.809487208537e-06 -1.253009888424e-06 2.241201228600e-07 1.626383436445e-06 -1.961562631383e-04 -1.809752826802e-04 -1.672147423413e-04 -1.546878346167e-04 -1.432498243637e-04 -1.327776919881e-04 -1.231655826336e-04 -1.143218233154e-04 -1.061666553520e-04 -9.863041056971e-05 -9.165201406038e-05 -8.517774327110e-05 -7.916018887788e-05 -7.355738595356e-05 -6.833208136969e-05 -6.345111158598e-05 -5.888487583397e-05 -5.460688797154e-05 -5.059338932598e-05 -4.682302017668e-05 -4.327653420838e-05 -3.993655377949e-05 -3.678735690903e-05 -3.381469430654e-05 -3.100563147569e-05 -2.834841631234e-05 -2.583236988691e-05 -2.344780991889e-05 -2.118601457151e-05 -1.903925136461e-05 -1.700076845458e-05 -2.614419664731e-04 -2.421158537969e-04 -2.245949104495e-04 -2.086442909238e-04 -1.940801094428e-04 -1.807458133946e-04 -1.685066307234e-04 -1.572458300533e-04 -1.468618472144e-04 -1.372659668107e-04 -1.283804168450e-04 -1.201367868405e-04 -1.124747070396e-04 -1.053407405866e-04 -9.868745016854e-05 -9.247260652574e-05 -8.665851798751e-05 -8.121145755903e-05 -7.610117283006e-05 -7.130046514461e-05 -6.678482776855e-05 -6.253213274144e-05 -5.852236019531e-05 -5.473736505364e-05 -5.116067539881e-05 -4.777732150071e-05 -4.457369608562e-05 -4.153745038574e-05 -3.865743863535e-05 -3.592373685011e-05 -3.332760284622e-05 -3.150205577445e-04 -2.922926232314e-04 -2.716855975912e-04 -2.529252106845e-04 -2.357954468157e-04 -2.201122339433e-04 -2.057170680523e-04 -1.924726528293e-04 -1.802595287573e-04 -1.689733491917e-04 -1.585226386617e-04 -1.488269329759e-04 -1.398152260063e-04 -1.314246661539e-04 -1.235994578553e-04 -1.162899322583e-04 -1.094517573112e-04 -1.030452638248e-04 -9.703486979813e-05 -9.138858527295e-05 -8.607758586600e-05 -8.107584502147e-05 -7.635981640353e-05 -7.190815720266e-05 -6.770149227695e-05 -6.372221183841e-05 -5.995430495303e-05 -5.638323452637e-05 -5.299586558942e-05 -4.978047591824e-05 -4.672668930661e-05 -3.548330404446e-04 -3.295773251172e-04 -3.066771338169e-04 -2.858289021127e-04 -2.667927391257e-04 -2.493641239136e-04 -2.333669183673e-04 -2.186485445348e-04 -2.050762459946e-04 -1.925340607896e-04 -1.809203309135e-04 -1.701456356145e-04 -1.601310651354e-04 -1.508067719541e-04 -1.421107500520e-04 -1.339878023433e-04 -1.263886623643e-04 -1.192692457928e-04 -1.125900102591e-04 -1.063154053034e-04 -1.004133984398e-04 -9.485506655829e-05 -8.961424208872e-05 -8.466720683747e-05 -7.999242820046e-05 -7.557033431980e-05 -7.138312852388e-05 -6.741464748140e-05 -6.365027817976e-05 -6.007696215981e-05 -5.668310891156e-05 -3.793494424684e-04 -3.525371276637e-04 -3.282248141878e-04 -3.060908952766e-04 -2.858807786243e-04 -2.673773501903e-04 -2.503936131410e-04 -2.347675803040e-04 -2.203583061678e-04 -2.070426761484e-04 -1.947127623772e-04 -1.832736284730e-04 -1.726414974931e-04 -1.627422139210e-04 -1.535099476892e-04 -1.448860970880e-04 -1.368183569689e-04 -1.292599244444e-04 -1.221688183413e-04 -1.155072954347e-04 -1.092413478837e-04 -1.033402689174e-04 -9.777627675719e-05 -9.252419033687e-05 -8.756114872805e-05 -8.286637187531e-05 -7.842096323844e-05 -7.420775824660e-05 -7.021123363748e-05 -6.641750772266e-05 -6.281424201792e-05 -3.876276060475e-04 -3.602897058264e-04 -3.355005779432e-04 -3.129325351242e-04 -2.923260216492e-04 -2.734596727660e-04 -2.561428248270e-04 -2.402103124664e-04 -2.255184260572e-04 -2.119416358448e-04 -1.993698961643e-04 -1.877064086802e-04 -1.768657531032e-04 -1.667723191330e-04 -1.573589851963e-04 -1.485660002640e-04 -1.403400334409e-04 -1.326333633035e-04 -1.254031853951e-04 -1.186110163820e-04 -1.122221811117e-04 -1.062053703105e-04 -1.005322577666e-04 -9.517716815096e-05 -9.011679176711e-05 -8.532994104929e-05 -8.079734785159e-05 -7.650150960967e-05 -7.242659604401e-05 -6.855844805209e-05 -6.488447600376e-05 
        </DataArray>
        <DataArray type="Float64" Name="DISPLACEMENT" NumberOfComponents="3" format="ascii">
          4.720994650512e-07 0.000000000000e+00 0.000000000000e+00 4.596732490089e-07 0.000000000000e+00 0.000000000000e+00 4.481139016660e-07 0.000000000000e+00 0.000000000000e+00 4.373417784651e-07 0.000000000000e+00 0.000000000000e+00 4.272872161607e-07 0.000000000000e+00 0.000000000000e+00 4.178886585609e-07 0.000000000000e+00 0.000000000000e+00 4.090914252333e-07 0.000000000000e+00 0.000000000000e+00 4.008467565158e-07 0.000000000000e+00 0.000000000000e+00 3.931110278594e-07 0.000000000000e+00 0.000000000000e+00 3.858450897297e-07 0.000000000000e+00 0.000000000000e+00 3.790137077523e-07 0.000000000000e+00 0.000000000000e+00 3.725850851077e-07 0.000000000000e+00 0.000000000000e+00 3.665304532651e-07 0.000000000000e+00 0.000000000000e+00 3.608237198408e-07 0.000000000000e+00 0.000000000000e+00 3.554411644859e-07 0.000000000000e+00 0.000000000000e+00 3.503611753256e-07 0.000000000000e+00 0.000000000000e+00 3.455640197782e-07 0.000000000000e+00 0.000000000000e+00 3.410316446210e-07 0.000000000000e+00 0.000000000000e+00 3.367475010608e-07 0.000000000000e+00 0.000000000000e+00 3.326963911921e-07 0.000000000000e+00 0.000000000000e+00 3.288643328895e-07 0.000000000000e+00 0.000000000000e+00 3.252384405333e-07 0.000000000000e+00 0.000000000000e+00 3.218068194339e-07 0.000000000000e+00 0.000000000000e+00 3.185584720341e-07 0.000000000000e+00 0.000000000000e+00 3.154832141926e-07 0.000000000000e+00 0.000000000000e+00 3.125715999233e-07 0.000000000000e+00 0.000000000000e+00 3.098148528417e-07 0.000000000000e+00 0.000000000000e+00 3.072048021696e-07 0.000000000000e+00 0.000000000000e+00 3.047338202310e-07 0.000000000000e+00 0.000000000000e+00 3.023947564562e-07 0.000000000000e+00 0.000000000000e+00 3.001808593902e-07 0.000000000000e+00 0.000000000000e+00 4.698261763065e-07 4.627380953098e-08 0.000000000000e+00 4.574597957089e-07 4.505582873773e-08 0.000000000000e+00 4.459561096251e-07 4.392281577758e-08 0.000000000000e+00 4.352358570065e-07 4.286696414849e-08 0.000000000000e+00 4.252297100492e-07 4.188144568127e-08 0.000000000000e+00 4.158764089672e-07 4.096022683576e-08 0.000000000000e+00 4.071215366285e-07 4.009794800958e-08 0.000000000000e+00 3.989165681574e-07 3.928982993414e-08 0.000000000000e+00 3.912180890686e-07 3.853159666947e-08 0.000000000000e+00 3.839871383433e-07 3.781941090063e-08 0.000000000000e+00 3.771886512678e-07 3.714981906085e-08 0.000000000000e+00 3.707909841323e-07 3.651970452807e-08 0.000000000000e+00 3.647655069339e-07 3.592624749444e-08 0.000000000000e+00 3.590862529289e-07 3.536689047040e-08 0.000000000000e+00 3.537296159879e-07 3.483930845461e-08 0.000000000000e+00 3.486740883030e-07 3.434138312410e-08 0.000000000000e+00 3.439000323091e-07 3.387118034384e-08 0.000000000000e+00 3.393894817160e-07 3.342693060236e-08 0.000000000000e+00 3.351259674136e-07 3.300701182697e-08 0.000000000000e+00 3.310943646816e-07 3.260993437692e-08 0.000000000000e+00 3.272807587214e-07 3.223432775569e-08 0.000000000000e+00 3.236723259605e-07 3.187892896515e-08 0.000000000000e+00 3.202572289873e-07 3.154257211204e-08 0.000000000000e+00 3.170245231980e-07 3.122417926008e-08 0.000000000000e+00 3.139640734921e-07 3.092275217942e-08 0.000000000000e+00 3.110664793654e-07 3.063736501737e-08 0.000000000000e+00 3.083230066961e-07 3.036715752580e-08 0.000000000000e+00 3.057255240498e-07 3.011132884479e-08 0.000000000000e+00 3.032664404793e-07 2.986913131862e-08 0.000000000000e+00 3.009386398496e-07 2.963986408233e-08 0.000000000000e+00 2.987354032125e-07 2.942286537229e-08 0.000000000000e+00 4.630282031454e-07 9.210197683349e-08 0.000000000000e+00 4.508407526512e-07 8.967774493771e-08 0.000000000000e+00 4.395035143189e-07 8.742263043737e-08 0.000000000000e+00 4.289383739208e-07 8.532109550806e-08 0.000000000000e+00 4.190770067529e-07 8.335954956940e-08 0.000000000000e+00 4.098590393939e-07 8.152598364320e-08 0.000000000000e+00 4.012308420714e-07 7.980973013818e-08 0.000000000000e+00 3.931445920177e-07 7.820127654526e-08 0.000000000000e+00 3.855575029100e-07 7.669211215808e-08 0.000000000000e+00 3.784311774576e-07 7.527459930258e-08 0.000000000000e+00 3.717310582994e-07 7.394186410874e-08 0.000000000000e+00 3.654259595790e-07 7.268770333788e-08 0.000000000000e+00 3.594876655394e-07 7.150650454385e-08 0.000000000000e+00 3.538905851546e-07 7.039317736064e-08 0.000000000000e+00 3.486114538503e-07 6.934309419274e-08 0.000000000000e+00 3.436290750181e-07 6.835203877637e-08 0.000000000000e+00 3.389240952284e-07 6.741616148771e-08 0.000000000000e+00 3.344788081472e-07 6.653194031976e-08 0.000000000000e+00 3.302769829562e-07 6.569614677728e-08 0.000000000000e+00 3.263037137761e-07 6.490581589466e-08 0.000000000000e+00 3.225452871417e-07 6.415821990679e-08 0.000000000000e+00 3.189890650291e-07 6.345084495232e-08 0.000000000000e+00 3.156233812992e-07 6.278137050211e-08 0.000000000000e+00 3.124374497097e-07 6.214765103562e-08 0.000000000000e+00 3.094212818021e-07 6.154769973772e-08 0.000000000000e+00 3.065656130913e-07 6.097967378397e-08 0.000000000000e+00 3.038618358261e-07 6.044186099929e-08 0.000000000000e+00 3.013019362308e-07 5.993266733875e-08 0.000000000000e+00 2.988784331901e-07 5.945060472842e-08 0.000000000000e+00 2.965843135335e-07 5.899427815671e-08 0.000000000000e+00 2.944129555270e-07 5.856237049456e-08 0.000000000000e+00 4.517710139479e-07 1.370431514973e-07 0.000000000000e+00 4.398798650934e-07 1.334360149201e-07 0.000000000000e+00 4.288182580757e-07 1.300805166497e-07 0.000000000000e+00 4.185099777683e-07 1.269535371635e-07 0.000000000000e+00 4.088883605621e-07 1.240348543508e-07 0.000000000000e+00 3.998945008277e-07 1.213065994413e-07 0.000000000000e+00 3.914760726315e-07 1.187528995912e-07 0.000000000000e+00 3.835864158676e-07 1.163596006491e-07 0.000000000000e+00 3.761837844307e-07 1.141140391112e-07 0.000000000000e+00 3.692307145441e-07 1.120048504920e-07 0.000000000000e+00 3.626934890006e-07 1.100218068168e-07 0.000000000000e+00 3.565416801335e-07 1.081556779729e-07 0.000000000000e+00 3.507477581675e-07 1.063981129154e-07 0.000000000000e+00 3.452867542427e-07 1.047415374396e-07 0.000000000000e+00 3.401359693946e-07 1.031790659047e-07 0.000000000000e+00 3.352747223453e-07 1.017044247257e-07 0.000000000000e+00 3.306841301868e-07 1.003118858481e-07 0.000000000000e+00 3.263469170607e-07 9.899620870668e-08 0.000000000000e+00 3.222472467516e-07 9.775258945042e-08 0.000000000000e+00 3.183705757738e-07 9.657661636817e-08 0.000000000000e+00 3.147035240626e-07 9.546423067305e-08 0.000000000000e+00 3.112337608511e-07 9.441169187039e-08 0.000000000000e+00 3.079499036280e-07 9.341554712434e-08 0.000000000000e+00 3.048414283859e-07 9.247260401350e-08 0.000000000000e+00 3.018985895054e-07 9.157990624742e-08 0.000000000000e+00 2.991123477410e-07 9.073471180186e-08 0.000000000000e+00 2.964743046111e-07 8.993447303637e-08 0.000000000000e+00 2.939766411716e-07 8.917681810108e-08 0.000000000000e+00 2.916120581894e-07 8.845953280660e-08 0.000000000000e+00 2.893737129975e-07 8.778054145342e-08 0.000000000000e+00 2.872551448503e-07 8.713788421740e-08 0.000000000000e+00 4.361630219023e-07 1.806645253743e-07 0.000000000000e+00 4.246826927694e-07 1.759092224774e-07 0.000000000000e+00 4.140032462345e-07 1.714856554252e-07 0.000000000000e+00 4.040511002520e-07 1.673633456521e-07 0.000000000000e+00 3.947618943202e-07 1.635156342533e-07 0.000000000000e+00 3.860787578849e-07 1.599189647553e-07 0.000000000000e+00 3.779511727799e-07 1.565524119087e-07 0.000000000000e+00 3.703340909196e-07 1.533973162402e-07 0.000000000000e+00 3.631872084552e-07 1.504369833896e-07 0.000000000000e+00 3.564743559160e-07 1.476564315145e-07 0.000000000000e+00 3.501629809657e-07 1.450421770212e-07 0.000000000000e+00 3.442237071581e-07 1.425820518230e-07 0.000000000000e+00 3.386299558281e-07 1.402650466964e-07 0.000000000000e+00 3.333576207428e-07 1.380811765367e-07 0.000000000000e+00 3.283847871505e-07 1.360213639708e-07 0.000000000000e+00 3.236914882764e-07 1.340773385145e-07 0.000000000000e+00 3.192594935873e-07 1.322415488388e-07 0.000000000000e+00 3.150721240734e-07 1.305070862949e-07 0.000000000000e+00 3.111140906386e-07 1.288676179350e-07 0.000000000000e+00 3.073713522479e-07 1.273173277931e-07 0.000000000000e+00 3.038309910983e-07 1.258508651396e-07 0.000000000000e+00 3.004811024257e-07 1.244632988820e-07 0.000000000000e+00 2.973106969730e-07 1.231500771163e-07 0.000000000000e+00 2.943096143129e-07 1.219069912785e-07 0.000000000000e+00 2.914684455274e-07 1.207301440602e-07 0.000000000000e+00 2.887784636547e-07 1.196159206571e-07 0.000000000000e+00 2.862315603772e-07 1.185609624873e-07 0.000000000000e+00 2.838201868732e-07 1.175621427474e-07 0.000000000000e+00 2.815372960923e-07 1.166165424460e-07 0.000000000000e+00 2.793762817667e-07 1.157214251984e-07 0.000000000000e+00 2.773309063549e-07 1.148742073416e-07 0.000000000000e+00 4.163545408901e-07 2.225460008017e-07 0.000000000000e+00 4.053955932679e-07 2.166883273569e-07 0.000000000000e+00 3.952011560693e-07 2.112392925617e-07 0.000000000000e+00 3.857009889729e-07 2.061613523094e-07 0.000000000000e+00 3.768336543994e-07 2.014216676421e-07 0.000000000000e+00 3.685448645717e-07 1.969912212252e-07 0.000000000000e+00 3.607863956022e-07 1.928442369297e-07 0.000000000000e+00 3.535152452705e-07 1.889577296476e-07 0.000000000000e+00 3.466929401246e-07 1.853111349461e-07 0.000000000000e+00 3.402849533330e-07 1.818859978886e-07 0.000000000000e+00 3.342602109246e-07 1.786657091356e-07 0.000000000000e+00 3.285906705936e-07 1.756352797897e-07 0.000000000000e+00 3.232509607402e-07 1.727811484841e-07 0.000000000000e+00 3.182180699251e-07 1.700910153648e-07 0.000000000000e+00 3.134710786556e-07 1.675536987600e-07 0.000000000000e+00 3.089909269552e-07 1.651590109112e-07 0.000000000000e+00 3.047602122259e-07 1.628976499621e-07 0.000000000000e+00 3.007630129487e-07 1.607611056881e-07 0.000000000000e+00 2.969847343782e-07 1.587415770643e-07 0.000000000000e+00 2.934119731601e-07 1.568318998476e-07 0.000000000000e+00 2.900323981496e-07 1.550254829300e-07 0.000000000000e+00 2.868346452489e-07 1.533162520735e-07 0.000000000000e+00 2.838082242670e-07 1.516986001797e-07 0.000000000000e+00 2.809434362255e-07 1.501673430312e-07 0.000000000000e+00 2.782312995047e-07 1.487176798774e-07 0.000000000000e+00 2.756634834930e-07 1.473451579070e-07 0.000000000000e+00 2.732322481003e-07 1.460456399771e-07 0.000000000000e+00 2.709303873510e-07 1.448152744064e-07 0.000000000000e+00 2.687511742266e-07 1.436504655522e-07 0.000000000000e+00 2.666883024914e-07 1.425478426554e-07 0.000000000000e+00 2.647358178732e-07 1.415042231327e-07 0.000000000000e+00 3.925363378592e-07 2.622842363492e-07 0.000000000000e+00 3.822043124773e-07 2.553806045633e-07 0.000000000000e+00 3.725930626780e-07 2.489585788744e-07 0.000000000000e+00 3.636363663121e-07 2.429739112004e-07 0.000000000000e+00 3.552763004126e-07 2.373878987664e-07 0.000000000000e+00 3.474616827947e-07 2.321663428313e-07 0.000000000000e+00 3.401470482822e-07 2.272788646126e-07 0.000000000000e+00 3.332918546442e-07 2.226983747269e-07 0.000000000000e+00 3.268598293550e-07 2.184006367036e-07 0.000000000000e+00 3.208184207339e-07 2.143639002542e-07 0.000000000000e+00 3.151383324382e-07 2.105685902294e-07 0.000000000000e+00 3.097931263555e-07 2.069970412881e-07 0.000000000000e+00 3.047588823113e-07 2.036332705028e-07 0.000000000000e+00 3.000139052576e-07 2.004627817440e-07 0.000000000000e+00 2.955384724388e-07 1.974723967025e-07 0.000000000000e+00 2.913146142252e-07 1.946501084801e-07 0.000000000000e+00 2.873259235637e-07 1.919849542516e-07 0.000000000000e+00 2.835573897417e-07 1.894669042038e-07 0.000000000000e+00 2.799952529356e-07 1.870867643213e-07 0.000000000000e+00 2.766268765374e-07 1.848360911222e-07 0.000000000000e+00 2.734406348362e-07 1.827071165557e-07 0.000000000000e+00 2.704258138213e-07 1.806926817733e-07 0.000000000000e+00 2.675725234175e-07 1.787861784431e-07 0.000000000000e+00 2.648716194837e-07 1.769814966625e-07 0.000000000000e+00 2.623146342152e-07 1.752729784294e-07 0.000000000000e+00 2.598937135545e-07 1.736553758478e-07 0.000000000000e+00 2.576015602084e-07 1.721238130184e-07 0.000000000000e+00 2.554313804173e-07 1.706737505164e-07 0.000000000000e+00 2.533768320021e-07 1.693009506306e-07 0.000000000000e+00 2.514319694758e-07 1.680014407329e-07 0.000000000000e+00 2.495911791920e-07 1.667714699285e-07 0.000000000000e+00 3.649377955967e-07 2.994965312145e-07 0.000000000000e+00 3.553321956982e-07 2.916134264945e-07 0.000000000000e+00 3.463966950400e-07 2.842802572402e-07 0.000000000000e+00 3.380697274172e-07 2.774464975132e-07 0.000000000000e+00 3.302974422999e-07 2.710679534460e-07 0.000000000000e+00 3.230322560233e-07 2.651055742325e-07 0.000000000000e+00 3.162318999714e-07 2.595246710004e-07 0.000000000000e+00 3.098586823570e-07 2.542943109697e-07 0.000000000000e+00 3.038788809025e-07 2.493868190411e-07 0.000000000000e+00 2.982622325720e-07 2.447773590348e-07 0.000000000000e+00 2.929815007907e-07 2.404435785159e-07 0.000000000000e+00 2.880121062621e-07 2.363653058113e-07 0.000000000000e+00 2.833318105882e-07 2.325242903750e-07 0.000000000000e+00 2.789204440677e-07 2.289039793855e-07 0.000000000000e+00 2.747596706065e-07 2.254893248265e-07 0.000000000000e+00 2.708327839909e-07 2.222666162807e-07 0.000000000000e+00 2.671245307137e-07 2.192233355428e-07 0.000000000000e+00 2.636209554406e-07 2.163480297823e-07 0.000000000000e+00 2.603092657685e-07 2.136302005654e-07 0.000000000000e+00 2.571777135568e-07 2.110602064533e-07 0.000000000000e+00 2.542154904641e-07 2.086291772933e-07 0.000000000000e+00 2.514126357731e-07 2.063289385417e-07 0.000000000000e+00 2.487599547552e-07 2.041519442971e-07 0.000000000000e+00 2.462489461797e-07 2.020912177922e-07 0.000000000000e+00 2.438717375972e-07 2.001402982841e-07 0.000000000000e+00 2.416210271593e-07 1.982931933061e-07 0.000000000000e+00 2.394900306227e-07 1.965443351914e-07 0.000000000000e+00 2.374724318958e-07 1.948885404552e-07 0.000000000000e+00 2.355623347010e-07 1.933209701598e-07 0.000000000000e+00 2.337542115693e-07 1.918370880398e-07 0.000000000000e+00 2.320428435347e-07 1.904326110310e-07 0.000000000000e+00 3.338247035865e-07 3.338245107976e-07 0.000000000000e+00 3.250380366218e-07 3.250378515061e-07 0.000000000000e+00 3.168643390897e-07 3.168641609007e-07 0.000000000000e+00 3.092472936460e-07 3.092471217758e-07 0.000000000000e+00 3.021376408290e-07 3.021374747755e-07 0.000000000000e+00 2.954918537468e-07 2.954916931047e-07 0.000000000000e+00 2.892712674223e-07 2.892711118714e-07 0.000000000000e+00 2.834414035094e-07 2.834412527931e-07 0.000000000000e+00 2.779714147441e-07 2.779712686698e-07 0.000000000000e+00 2.728336181876e-07 2.728334766138e-07 0.000000000000e+00 2.680030993411e-07 2.680029621656e-07 0.000000000000e+00 2.634573744322e-07 2.634572415931e-07 0.000000000000e+00 2.591761010192e-07 2.591759724815e-07 0.000000000000e+00 2.551408289802e-07 2.551407047370e-07 0.000000000000e+00 2.513347854799e-07 2.513346655514e-07 0.000000000000e+00 2.477426886050e-07 2.477425730299e-07 0.000000000000e+00 2.443505852987e-07 2.443504741384e-07 0.000000000000e+00 2.411457099967e-07 2.411456033316e-07 0.000000000000e+00 2.381163609288e-07 2.381162588531e-07 0.000000000000e+00 2.352517915440e-07 2.352516941738e-07 0.000000000000e+00 2.325421149814e-07 2.325420224456e-07 0.000000000000e+00 2.299782197277e-07 2.299781321686e-07 0.000000000000e+00 2.275516949629e-07 2.275516125365e-07 0.000000000000e+00 2.252547642343e-07 2.252546871087e-07 0.000000000000e+00 2.230802262655e-07 2.230801546142e-07 0.000000000000e+00 2.210214017303e-07 2.210213357428e-07 0.000000000000e+00 2.190720847888e-07 2.190720246558e-07 0.000000000000e+00 2.172264978256e-07 2.172264437495e-07 0.000000000000e+00 2.154792472586e-07 2.154791994469e-07 0.000000000000e+00 2.138252768716e-07 2.138252355403e-07 0.000000000000e+00 2.122598126436e-07 2.122597780376e-07 0.000000000000e+00 2.994966982804e-07 3.649375780231e-07 0.000000000000e+00 2.916135849650e-07 3.553319843686e-07 0.000000000000e+00 2.842804079904e-07 3.463964894051e-07 0.000000000000e+00 2.774466412622e-07 3.380695270232e-07 0.000000000000e+00 2.710680907767e-07 3.302972467773e-07 0.000000000000e+00 2.651057056171e-07 3.230320650705e-07 0.000000000000e+00 2.595247968163e-07 3.162317133469e-07 0.000000000000e+00 2.542944315121e-07 3.098584998719e-07 0.000000000000e+00 2.493869345402e-07 3.038787024137e-07 0.000000000000e+00 2.447774696630e-07 2.982620579788e-07 0.000000000000e+00 2.404436843984e-07 2.929813300264e-07 0.000000000000e+00 2.363654070348e-07 2.880119392879e-07 0.000000000000e+00 2.325243869862e-07 2.833316473959e-07 0.000000000000e+00 2.289040714041e-07 2.789202846659e-07 0.000000000000e+00 2.254894122448e-07 2.747595150257e-07 0.000000000000e+00 2.222666990649e-07 2.708326322802e-07 0.000000000000e+00 2.192234136391e-07 2.671243829396e-07 0.000000000000e+00 2.163481031149e-07 2.636208116821e-07 0.000000000000e+00 2.136302690382e-07 2.603091261236e-07 0.000000000000e+00 2.110602699577e-07 2.571775781347e-07 0.000000000000e+00 2.086292356992e-07 2.542153593906e-07 0.000000000000e+00 2.063289917092e-07 2.514125091831e-07 0.000000000000e+00 2.041519920738e-07 2.487598327997e-07 0.000000000000e+00 2.020912600114e-07 2.462488290188e-07 0.000000000000e+00 2.001403347691e-07 2.438716253978e-07 0.000000000000e+00 1.982932238760e-07 2.416209200964e-07 0.000000000000e+00 1.965443596478e-07 2.394899288841e-07 0.000000000000e+00 1.948885586010e-07 2.374723356699e-07 0.000000000000e+00 1.933209817870e-07 2.355622441834e-07 0.000000000000e+00 1.918370929302e-07 2.337541269696e-07 0.000000000000e+00 1.904326089367e-07 2.320427650817e-07 0.000000000000e+00 2.622843773982e-07 3.925360971557e-07 0.000000000000e+00 2.553807367190e-07 3.822040762455e-07 0.000000000000e+00 2.489587030632e-07 3.725928306062e-07 0.000000000000e+00 2.429740281789e-07 3.636361381420e-07 0.000000000000e+00 2.373880091472e-07 3.552760759303e-07 0.000000000000e+00 2.321664471082e-07 3.474614618278e-07 0.000000000000e+00 2.272789631847e-07 3.401468306881e-07 0.000000000000e+00 2.226984679087e-07 3.332916403165e-07 0.000000000000e+00 2.184007247413e-07 3.268596182151e-07 0.000000000000e+00 2.143639833344e-07 3.208182127271e-07 0.000000000000e+00 2.105686684914e-07 3.151381275362e-07 0.000000000000e+00 2.069971148260e-07 3.097929245535e-07 0.000000000000e+00 2.036333393779e-07 3.047586836178e-07 0.000000000000e+00 2.004628459814e-07 3.000137097072e-07 0.000000000000e+00 1.974724563028e-07 2.955382800736e-07 0.000000000000e+00 1.946501634166e-07 2.913144251031e-07 0.000000000000e+00 1.919850044777e-07 2.873257377550e-07 0.000000000000e+00 1.894669496470e-07 2.835572073295e-07 0.000000000000e+00 1.870868048981e-07 2.799950740082e-07 0.000000000000e+00 1.848361267268e-07 2.766267012041e-07 0.000000000000e+00 1.827071470729e-07 2.734404632067e-07 0.000000000000e+00 1.806927070677e-07 2.704256460245e-07 0.000000000000e+00 1.787861983731e-07 2.675723595880e-07 0.000000000000e+00 1.769815110735e-07 2.648714597659e-07 0.000000000000e+00 1.752729871577e-07 2.623144787622e-07 0.000000000000e+00 1.736553787178e-07 2.598935625292e-07 0.000000000000e+00 1.721238098539e-07 2.576014137729e-07 0.000000000000e+00 1.706737411227e-07 2.554312387478e-07 0.000000000000e+00 1.693009348148e-07 2.533766952749e-07 0.000000000000e+00 1.680014182875e-07 2.514318378769e-07 0.000000000000e+00 1.667714406199e-07 2.495910529214e-07 0.000000000000e+00 2.225461160651e-07 4.163542794052e-07 0.000000000000e+00 2.166884341098e-07 4.053953343487e-07 0.000000000000e+00 2.112393916848e-07 3.952008996535e-07 0.000000000000e+00 2.061614445283e-07 3.857007350046e-07 0.000000000000e+00 2.014217535395e-07 3.768334028308e-07 0.000000000000e+00 1.969913012739e-07 3.685446153629e-07 0.000000000000e+00 1.928443115139e-07 3.607861487257e-07 0.000000000000e+00 1.889577990712e-07 3.535150007034e-07 0.000000000000e+00 1.853111994459e-07 3.466926978579e-07 0.000000000000e+00 1.818860576558e-07 3.402847133648e-07 0.000000000000e+00 1.786657643063e-07 3.342599732718e-07 0.000000000000e+00 1.756353304616e-07 3.285904352805e-07 0.000000000000e+00 1.727811947166e-07 3.232507278022e-07 0.000000000000e+00 1.700910571929e-07 3.182178394097e-07 0.000000000000e+00 1.675537361843e-07 3.134708506233e-07 0.000000000000e+00 1.651590439128e-07 3.089907014655e-07 0.000000000000e+00 1.628976784973e-07 3.047599893585e-07 0.000000000000e+00 1.607611297040e-07 3.007627927838e-07 0.000000000000e+00 1.587415964759e-07 2.969845170039e-07 0.000000000000e+00 1.568319145715e-07 2.934117586693e-07 0.000000000000e+00 1.550254928602e-07 2.900321866484e-07 0.000000000000e+00 1.533162570999e-07 2.868344368434e-07 0.000000000000e+00 1.516986001718e-07 2.838080190795e-07 0.000000000000e+00 1.501673378620e-07 2.809432343788e-07 0.000000000000e+00 1.487176693970e-07 2.782311011371e-07 0.000000000000e+00 1.473451419695e-07 2.756632887400e-07 0.000000000000e+00 1.460456184181e-07 2.732320571088e-07 0.000000000000e+00 1.448152470646e-07 2.709302002691e-07 0.000000000000e+00 1.436504322485e-07 2.687509912134e-07 0.000000000000e+00 1.425478032099e-07 2.666881237036e-07 0.000000000000e+00 1.415041773311e-07 2.647356434821e-07 0.000000000000e+00 1.806646154929e-07 4.361627426391e-07 0.000000000000e+00 1.759093051123e-07 4.246824142400e-07 0.000000000000e+00 1.714857313368e-07 4.140029686080e-07 0.000000000000e+00 1.673634154616e-07 4.040508236641e-07 0.000000000000e+00 1.635156984679e-07 3.947616188745e-07 0.000000000000e+00 1.599190237813e-07 3.860784836696e-07 0.000000000000e+00 1.565524660787e-07 3.779508998694e-07 0.000000000000e+00 1.533973658187e-07 3.703338193791e-07 0.000000000000e+00 1.504370285917e-07 3.631869383424e-07 0.000000000000e+00 1.476564725019e-07 3.564740872837e-07 0.000000000000e+00 1.450422139229e-07 3.501627138681e-07 0.000000000000e+00 1.425820847261e-07 3.442234416536e-07 0.000000000000e+00 1.402650756585e-07 3.386296919728e-07 0.000000000000e+00 1.380812015882e-07 3.333573586031e-07 0.000000000000e+00 1.360213851219e-07 3.283845267950e-07 0.000000000000e+00 1.340773557453e-07 3.236912297754e-07 0.000000000000e+00 1.322415621230e-07 3.192592370157e-07 0.000000000000e+00 1.305070955803e-07 3.150718695142e-07 0.000000000000e+00 1.288676231651e-07 3.111138381750e-07 0.000000000000e+00 1.273173288926e-07 3.073711019684e-07 0.000000000000e+00 1.258508620308e-07 3.038307430953e-07 0.000000000000e+00 1.244632914689e-07 3.004808567960e-07 0.000000000000e+00 1.231500653048e-07 2.973104538139e-07 0.000000000000e+00 1.219069749540e-07 2.943093737318e-07 0.000000000000e+00 1.207301231155e-07 2.914682076340e-07 0.000000000000e+00 1.196158949631e-07 2.887782285689e-07 0.000000000000e+00 1.185609319212e-07 2.862313282171e-07 0.000000000000e+00 1.175621071666e-07 2.838199577696e-07 0.000000000000e+00 1.166165017150e-07 2.815370701732e-07 0.000000000000e+00 1.157213791603e-07 2.793760591669e-07 0.000000000000e+00 1.148741558293e-07 2.773306872105e-07 0.000000000000e+00 1.370432173509e-07 4.517707204657e-07 0.000000000000e+00 1.334360748849e-07 4.398795707747e-07 0.000000000000e+00 1.300805712885e-07 4.288179632820e-07 0.000000000000e+00 1.269535869385e-07 4.185096827848e-07 0.000000000000e+00 1.240348996411e-07 4.088880656248e-07 0.000000000000e+00 1.213066405595e-07 3.998942061273e-07 0.000000000000e+00 1.187529367851e-07 3.914757783291e-07 0.000000000000e+00 1.163596341271e-07 3.835861220975e-07 0.000000000000e+00 1.141140690376e-07 3.761834913103e-07 0.000000000000e+00 1.120048769966e-07 3.692304221745e-07 0.000000000000e+00 1.100218299982e-07 3.626931974733e-07 0.000000000000e+00 1.081556979049e-07 3.565413895344e-07 0.000000000000e+00 1.063981296459e-07 3.507474685781e-07 0.000000000000e+00 1.047415509959e-07 3.452864657410e-07 0.000000000000e+00 1.031790762954e-07 3.401356820577e-07 0.000000000000e+00 1.017044319445e-07 3.352744362502e-07 0.000000000000e+00 1.003118898737e-07 3.306838454103e-07 0.000000000000e+00 9.899620950652e-08 3.263466336808e-07 0.000000000000e+00 9.775258697969e-08 3.222469648502e-07 0.000000000000e+00 9.657661057602e-08 3.183702954317e-07 0.000000000000e+00 9.546422149809e-08 3.147032453619e-07 0.000000000000e+00 9.441167924804e-08 3.112334838751e-07 0.000000000000e+00 9.341553098339e-08 3.079496284634e-07 0.000000000000e+00 9.247258427917e-08 3.048411551186e-07 0.000000000000e+00 9.157988283598e-08 3.018983182294e-07 0.000000000000e+00 9.073468462972e-08 2.991120785518e-07 0.000000000000e+00 8.993444200830e-08 2.964740376095e-07 0.000000000000e+00 8.917678312221e-08 2.939763764615e-07 0.000000000000e+00 8.845949377107e-08 2.916117958779e-07 0.000000000000e+00 8.778049825728e-08 2.893734531942e-07 0.000000000000e+00 8.713783673716e-08 2.872548876603e-07 0.000000000000e+00 9.210201943019e-08 4.630278994439e-07 0.000000000000e+00 8.967778366154e-08 4.508404469557e-07 0.000000000000e+00 8.742266559837e-08 4.395032071220e-07 0.000000000000e+00 8.532112736412e-08 4.289380656134e-07 0.000000000000e+00 8.335957834122e-08 4.190766976517e-07 0.000000000000e+00 8.152600951543e-08 4.098587297604e-07 0.000000000000e+00 7.980975326738e-08 4.012305321223e-07 0.000000000000e+00 7.820129706147e-08 3.931442819368e-07 0.000000000000e+00 7.669213017001e-08 3.855571928593e-07 0.000000000000e+00 7.527461489694e-08 3.784308675763e-07 0.000000000000e+00 7.394187735422e-08 3.717307487086e-07 0.000000000000e+00 7.268771428635e-08 3.654256503892e-07 0.000000000000e+00 7.150651322774e-08 3.594873568532e-07 0.000000000000e+00 7.039318380469e-08 3.538902770616e-07 0.000000000000e+00 6.934309840310e-08 3.486111464396e-07 0.000000000000e+00 6.835204075351e-08 3.436287683729e-07 0.000000000000e+00 6.741616121940e-08 3.389237894291e-07 0.000000000000e+00 6.653193778897e-08 3.344785032706e-07 0.000000000000e+00 6.569614195329e-08 3.302766790801e-07 0.000000000000e+00 6.490580874716e-08 3.263034109777e-07 0.000000000000e+00 6.415821039529e-08 3.225449854954e-07 0.000000000000e+00 6.345083304134e-08 3.189887646102e-07 0.000000000000e+00 6.278135614669e-08 3.156230821824e-07 0.000000000000e+00 6.214763419921e-08 3.124371519691e-07 0.000000000000e+00 6.154768036946e-08 3.094209855133e-07 0.000000000000e+00 6.097965183999e-08 3.065653183332e-07 0.000000000000e+00 6.044183642306e-08 3.038615426799e-07 0.000000000000e+00 5.993264008060e-08 3.013016447784e-07 0.000000000000e+00 5.945057472789e-08 2.988781435200e-07 0.000000000000e+00 5.899424536005e-08 2.965840257329e-07 0.000000000000e+00 5.856233483732e-08 2.944126696820e-07 0.000000000000e+00 4.627382995993e-08 4.698258667039e-07 0.000000000000e+00 4.505584753889e-08 4.574594834790e-07 0.000000000000e+00 4.392283294295e-08 4.459557953082e-07 0.000000000000e+00 4.286697969803e-08 4.352355410130e-07 0.000000000000e+00 4.188145967324e-08 4.252293927182e-07 0.000000000000e+00 4.096023934192e-08 4.158760905896e-07 0.000000000000e+00 4.009795909936e-08 4.071212174571e-07 0.000000000000e+00 3.928983967006e-08 3.989162484107e-07 0.000000000000e+00 3.853160510477e-08 3.912177689369e-07 0.000000000000e+00 3.781941807796e-08 3.839868179948e-07 0.000000000000e+00 3.714982501787e-08 3.771883308487e-07 0.000000000000e+00 3.651970928970e-08 3.707906637741e-07 0.000000000000e+00 3.592625108261e-08 3.647651867540e-07 0.000000000000e+00 3.536689289570e-08 3.590859330320e-07 0.000000000000e+00 3.483930972681e-08 3.537292964718e-07 0.000000000000e+00 3.434138323883e-08 3.486737692561e-07 0.000000000000e+00 3.387117930143e-08 3.438997138150e-07 0.000000000000e+00 3.342692839001e-08 3.393891638555e-07 0.000000000000e+00 3.300700843429e-08 3.351256502640e-07 0.000000000000e+00 3.260992978499e-08 3.310940483187e-07 0.000000000000e+00 3.223432195245e-08 3.272804432182e-07 0.000000000000e+00 3.187892192625e-08 3.236720113906e-07 0.000000000000e+00 3.154256382661e-08 3.202569154179e-07 0.000000000000e+00 3.122416970692e-08 3.170242106971e-07 0.000000000000e+00 3.092274134933e-08 3.139637621241e-07 0.000000000000e+00 3.063735288791e-08 3.110661691943e-07 0.000000000000e+00 3.036714409466e-08 3.083226977824e-07 0.000000000000e+00 3.011131409763e-08 3.057252164563e-07 0.000000000000e+00 2.986911526424e-08 3.032661342698e-07 0.000000000000e+00 2.963984672434e-08 3.009383350911e-07 0.000000000000e+00 2.942284670725e-08 2.987350999823e-07 0.000000000000e+00 0.000000000000e+00 4.720991540423e-07 0.000000000000e+00 0.000000000000e+00 4.596729353018e-07 0.000000000000e+00 0.000000000000e+00 4.481135856004e-07 0.000000000000e+00 0.000000000000e+00 4.373414604531e-07 0.000000000000e+00 0.000000000000e+00 4.272868965730e-07 0.000000000000e+00 0.000000000000e+00 4.178883377209e-07 0.000000000000e+00 0.000000000000e+00 4.090911034175e-07 0.000000000000e+00 0.000000000000e+00 4.008464339615e-07 0.000000000000e+00 0.000000000000e+00 3.931107047747e-07 0.000000000000e+00 0.000000000000e+00 3.858447662968e-07 0.000000000000e+00 0.000000000000e+00 3.790133841295e-07 0.000000000000e+00 0.000000000000e+00 3.725847614356e-07 0.000000000000e+00 0.000000000000e+00 3.665301296688e-07 0.000000000000e+00 0.000000000000e+00 3.608233964307e-07 0.000000000000e+00 0.000000000000e+00 3.554408413624e-07 0.000000000000e+00 0.000000000000e+00 3.503608525825e-07 0.000000000000e+00 0.000000000000e+00 3.455636975013e-07 0.000000000000e+00 0.000000000000e+00 3.410313228922e-07 0.000000000000e+00 0.000000000000e+00 3.367471799574e-07 0.000000000000e+00 0.000000000000e+00 3.326960707920e-07 0.000000000000e+00 0.000000000000e+00 3.288640132666e-07 0.000000000000e+00 0.000000000000e+00 3.252381217641e-07 0.000000000000e+00 0.000000000000e+00 3.218065015913e-07 0.000000000000e+00 0.000000000000e+00 3.185581551845e-07 0.000000000000e+00 0.000000000000e+00 3.154828984044e-07 0.000000000000e+00 0.000000000000e+00 3.125712852596e-07 0.000000000000e+00 0.000000000000e+00 3.098145393625e-07 0.000000000000e+00 0.000000000000e+00 3.072044899361e-07 0.000000000000e+00 0.000000000000e+00 3.047335092946e-07 0.000000000000e+00 0.000000000000e+00 3.023944468545e-07 0.000000000000e+00 0.000000000000e+00 3.001805511172e-07 0.000000000000e+00 
        </DataArray>
        <DataArray type="Float64" Name="NORMSTRESS_1" NumberOfComponents="3" format="ascii">
          -1.843987622296e-04 9.999999829985e-01 0.000000000000e+00 -1.272788312040e-04 9.999999919000e-01 0.000000000000e+00 -1.144402576970e-04 9.999999934517e-01 0.000000000000e+00 -1.110629128029e-04 9.999999938325e-01 0.000000000000e+00 -1.101994491479e-04 9.999999939280e-01 0.000000000000e+00 -1.100252723983e-04 9.999999939472e-01 0.000000000000e+00 -1.100429025269e-04 9.999999939453e-01 0.000000000000e+00 -1.101121410440e-04 9.999999939377e-01 0.000000000000e+00 -1.101924646307e-04 9.999999939288e-01 0.000000000000e+00 -1.102720031003e-04 9.999999939200e-01 0.000000000000e+00 -1.103474303288e-04 9.999999939117e-01 0.000000000000e+00 -1.104181866982e-04 9.999999939039e-01 0.000000000000e+00 -1.104841769645e-04 9.999999938966e-01 0.000000000000e+00 -1.105457733828e-04 9.999999938898e-01 0.000000000000e+00 -1.106031567715e-04 9.999999938835e-01 0.000000000000e+00 -1.106569407193e-04 9.999999938775e-01 0.000000000000e+00 -1.107066589305e-04 9.999999938720e-01 0.000000000000e+00 -1.107528342640e-04 9.999999938669e-01 0.000000000000e+00 -1.107940243607e-04 9.999999938623e-01 0.000000000000e+00 -1.108285064380e-04 9.999999938585e-01 0.000000000000e+00 -1.108499971914e-04 9.999999938561e-01 0.000000000000e+00 -1.108460459365e-04 9.999999938566e-01 0.000000000000e+00 -1.107867951021e-04 9.999999938631e-01 0.000000000000e+00 -1.106077313706e-04 9.999999938830e-01 0.000000000000e+00 -1.101688379536e-04 9.999999939314e-01 0.000000000000e+00 -1.091713907585e-04 9.999999940408e-01 0.000000000000e+00 -1.069872118042e-04 9.999999942769e-01 0.000000000000e+00 -1.023143690530e-04 9.999999947659e-01 0.000000000000e+00 -9.248632970597e-05 9.999999957231e-01 0.000000000000e+00 -7.211507127689e-05 9.999999973997e-01 0.000000000000e+00 -2.976840691917e-05 9.999999995569e-01 0.000000000000e+00 -9.801714180699e-02 9.951847265267e-01 0.000000000000e+00 -9.801714574706e-02 9.951847261386e-01 0.000000000000e+00 -9.801714908842e-02 9.951847258095e-01 0.000000000000e+00 -9.801715218919e-02 9.951847255041e-01 0.000000000000e+00 -9.801715503531e-02 9.951847252238e-01 0.000000000000e+00 -9.801715731753e-02 9.951847249990e-01 0.000000000000e+00 -9.801715954738e-02 9.951847247794e-01 0.000000000000e+00 -9.801716141973e-02 9.951847245950e-01 0.000000000000e+00 -9.801716295111e-02 9.951847244442e-01 0.000000000000e+00 -9.801716433835e-02 9.951847243075e-01 0.000000000000e+00 -9.801716551351e-02 9.951847241918e-01 0.000000000000e+00 -9.801716637463e-02 9.951847241070e-01 0.000000000000e+00 -9.801716720853e-02 9.951847240248e-01 0.000000000000e+00 -9.801716756533e-02 9.951847239897e-01 0.000000000000e+00 -9.801716817118e-02 9.951847239300e-01 0.000000000000e+00 -9.801716799238e-02 9.951847239476e-01 0.000000000000e+00 -9.801716822474e-02 9.951847239248e-01 0.000000000000e+00 -9.801716762215e-02 9.951847239841e-01 0.000000000000e+00 -9.801716738031e-02 9.951847240079e-01 0.000000000000e+00 -9.801716615620e-02 9.951847241285e-01 0.000000000000e+00 -9.801716560299e-02 9.951847241830e-01 0.000000000000e+00 -9.801716400729e-02 9.951847243401e-01 0.000000000000e+00 -9.801716282194e-02 9.951847244569e-01 0.000000000000e+00 -9.801716114013e-02 9.951847246225e-01 0.000000000000e+00 -9.801715931913e-02 9.951847248019e-01 0.000000000000e+00 -9.801715687264e-02 9.951847250428e-01 0.000000000000e+00 -9.801715474251e-02 9.951847252526e-01 0.000000000000e+00 -9.801715146912e-02 9.951847255750e-01 0.000000000000e+00 -9.801714900602e-02 9.951847258176e-01 0.000000000000e+00 -9.801714526510e-02 9.951847261861e-01 0.000000000000e+00 -9.801714186893e-02 9.951847265206e-01 0.000000000000e+00 -1.950903249517e-01 9.807852798193e-01 0.000000000000e+00 -1.950903323806e-01 9.807852783416e-01 0.000000000000e+00 -1.950903389604e-01 9.807852770328e-01 0.000000000000e+00 -1.950903448872e-01 9.807852758539e-01 0.000000000000e+00 -1.950903500866e-01 9.807852748197e-01 0.000000000000e+00 -1.950903547490e-01 9.807852738923e-01 0.000000000000e+00 -1.950903587488e-01 9.807852730966e-01 0.000000000000e+00 -1.950903623994e-01 9.807852723705e-01 0.000000000000e+00 -1.950903654721e-01 9.807852717593e-01 0.000000000000e+00 -1.950903680371e-01 9.807852712491e-01 0.000000000000e+00 -1.950903703684e-01 9.807852707854e-01 0.000000000000e+00 -1.950903721858e-01 9.807852704239e-01 0.000000000000e+00 -1.950903734476e-01 9.807852701729e-01 0.000000000000e+00 -1.950903747523e-01 9.807852699134e-01 0.000000000000e+00 -1.950903751249e-01 9.807852698392e-01 0.000000000000e+00 -1.950903756648e-01 9.807852697318e-01 0.000000000000e+00 -1.950903752702e-01 9.807852698103e-01 0.000000000000e+00 -1.950903750190e-01 9.807852698603e-01 0.000000000000e+00 -1.950903735666e-01 9.807852701492e-01 0.000000000000e+00 -1.950903725718e-01 9.807852703471e-01 0.000000000000e+00 -1.950903702969e-01 9.807852707996e-01 0.000000000000e+00 -1.950903681848e-01 9.807852712197e-01 0.000000000000e+00 -1.950903655609e-01 9.807852717416e-01 0.000000000000e+00 -1.950903623624e-01 9.807852723779e-01 0.000000000000e+00 -1.950903587261e-01 9.807852731012e-01 0.000000000000e+00 -1.950903545980e-01 9.807852739223e-01 0.000000000000e+00 -1.950903497417e-01 9.807852748883e-01 0.000000000000e+00 -1.950903445860e-01 9.807852759138e-01 0.000000000000e+00 -1.950903385031e-01 9.807852771238e-01 0.000000000000e+00 -1.950903326193e-01 9.807852782941e-01 0.000000000000e+00 -1.950903247984e-01 9.807852798498e-01 0.000000000000e+00 -2.902846815103e-01 9.569403344412e-01 0.000000000000e+00 -2.902846918907e-01 9.569403312924e-01 0.000000000000e+00 -2.902847010645e-01 9.569403285095e-01 0.000000000000e+00 -2.902847091567e-01 9.569403260548e-01 0.000000000000e+00 -2.902847164108e-01 9.569403238543e-01 0.000000000000e+00 -2.902847227795e-01 9.569403219223e-01 0.000000000000e+00 -2.902847285038e-01 9.569403201859e-01 0.000000000000e+00 -2.902847334083e-01 9.569403186981e-01 0.000000000000e+00 -2.902847376590e-01 9.569403174087e-01 0.000000000000e+00 -2.902847415067e-01 9.569403162415e-01 0.000000000000e+00 -2.902847445636e-01 9.569403153142e-01 0.000000000000e+00 -2.902847470709e-01 9.569403145536e-01 0.000000000000e+00 -2.902847491584e-01 9.569403139204e-01 0.000000000000e+00 -2.902847505894e-01 9.569403134863e-01 0.000000000000e+00 -2.902847515242e-01 9.569403132027e-01 0.000000000000e+00 -2.902847517951e-01 9.569403131206e-01 0.000000000000e+00 -2.902847518444e-01 9.569403131056e-01 0.000000000000e+00 -2.902847509197e-01 9.569403133861e-01 0.000000000000e+00 -2.902847496946e-01 9.569403137577e-01 0.000000000000e+00 -2.902847476871e-01 9.569403143667e-01 0.000000000000e+00 -2.902847451798e-01 9.569403151273e-01 0.000000000000e+00 -2.902847421106e-01 9.569403160583e-01 0.000000000000e+00 -2.902847382123e-01 9.569403172408e-01 0.000000000000e+00 -2.902847340584e-01 9.569403185009e-01 0.000000000000e+00 -2.902847287271e-01 9.569403201182e-01 0.000000000000e+00 -2.902847231165e-01 9.569403218201e-01 0.000000000000e+00 -2.902847163287e-01 9.569403238792e-01 0.000000000000e+00 -2.902847090646e-01 9.569403260827e-01 0.000000000000e+00 -2.902847010061e-01 9.569403285272e-01 0.000000000000e+00 -2.902846920027e-01 9.569403312584e-01 0.000000000000e+00 -2.902846815275e-01 9.569403344360e-01 0.000000000000e+00 -3.826834378619e-01 9.238795302344e-01 0.000000000000e+00 -3.826834501570e-01 9.238795251416e-01 0.000000000000e+00 -3.826834610202e-01 9.238795206419e-01 0.000000000000e+00 -3.826834706511e-01 9.238795166527e-01 0.000000000000e+00 -3.826834793453e-01 9.238795130515e-01 0.000000000000e+00 -3.826834868673e-01 9.238795099357e-01 0.000000000000e+00 -3.826834935189e-01 9.238795071806e-01 0.000000000000e+00 -3.826834995621e-01 9.238795046774e-01 0.000000000000e+00 -3.826835046724e-01 9.238795025606e-01 0.000000000000e+00 -3.826835090439e-01 9.238795007499e-01 0.000000000000e+00 -3.826835129469e-01 9.238794991332e-01 0.000000000000e+00 -3.826835158667e-01 9.238794979238e-01 0.000000000000e+00 -3.826835184006e-01 9.238794968742e-01 0.000000000000e+00 -3.826835201142e-01 9.238794961644e-01 0.000000000000e+00 -3.826835212635e-01 9.238794956884e-01 0.000000000000e+00 -3.826835217597e-01 9.238794954828e-01 0.000000000000e+00 -3.826835216828e-01 9.238794955147e-01 0.000000000000e+00 -3.826835206279e-01 9.238794959516e-01 0.000000000000e+00 -3.826835194129e-01 9.238794964549e-01 0.000000000000e+00 -3.826835169708e-01 9.238794974665e-01 0.000000000000e+00 -3.826835142075e-01 9.238794986111e-01 0.000000000000e+00 -3.826835103092e-01 9.238795002258e-01 0.000000000000e+00 -3.826835061346e-01 9.238795019550e-01 0.000000000000e+00 -3.826835005655e-01 9.238795042617e-01 0.000000000000e+00 -3.826834946852e-01 9.238795066974e-01 0.000000000000e+00 -3.826834876353e-01 9.238795096176e-01 0.000000000000e+00 -3.826834798558e-01 9.238795128400e-01 0.000000000000e+00 -3.826834711049e-01 9.238795164647e-01 0.000000000000e+00 -3.826834614085e-01 9.238795204811e-01 0.000000000000e+00 -3.826834506601e-01 9.238795249332e-01 0.000000000000e+00 -3.826834377921e-01 9.238795302633e-01 0.000000000000e+00 -4.713967433526e-01 8.819212608598e-01 0.000000000000e+00 -4.713967564811e-01 8.819212538425e-01 0.000000000000e+00 -4.713967680419e-01 8.819212476631e-01 0.000000000000e+00 -4.713967784119e-01 8.819212421202e-01 0.000000000000e+00 -4.713967875024e-01 8.819212372612e-01 0.000000000000e+00 -4.713967955959e-01 8.819212329352e-01 0.000000000000e+00 -4.713968028175e-01 8.819212290752e-01 0.000000000000e+00 -4.713968091304e-01 8.819212257008e-01 0.000000000000e+00 -4.713968146365e-01 8.819212227578e-01 0.000000000000e+00 -4.713968194781e-01 8.819212201699e-01 0.000000000000e+00 -4.713968234388e-01 8.819212180528e-01 0.000000000000e+00 -4.713968268213e-01 8.819212162449e-01 0.000000000000e+00 -4.713968293243e-01 8.819212149070e-01 0.000000000000e+00 -4.713968314442e-01 8.819212137739e-01 0.000000000000e+00 -4.713968325185e-01 8.819212131996e-01 0.000000000000e+00 -4.713968332746e-01 8.819212127955e-01 0.000000000000e+00 -4.713968329658e-01 8.819212129606e-01 0.000000000000e+00 -4.713968324741e-01 8.819212132234e-01 0.000000000000e+00 -4.713968304749e-01 8.819212142919e-01 0.000000000000e+00 -4.713968286587e-01 8.819212152627e-01 0.000000000000e+00 -4.713968251900e-01 8.819212171168e-01 0.000000000000e+00 -4.713968214916e-01 8.819212190937e-01 0.000000000000e+00 -4.713968165445e-01 8.819212217379e-01 0.000000000000e+00 -4.713968109963e-01 8.819212247035e-01 0.000000000000e+00 -4.713968044001e-01 8.819212282293e-01 0.000000000000e+00 -4.713967968200e-01 8.819212322809e-01 0.000000000000e+00 -4.713967887388e-01 8.819212366004e-01 0.000000000000e+00 -4.713967791234e-01 8.819212417399e-01 0.000000000000e+00 -4.713967687801e-01 8.819212472685e-01 0.000000000000e+00 -4.713967573568e-01 8.819212533744e-01 0.000000000000e+00 -4.713967432711e-01 8.819212609034e-01 0.000000000000e+00 -5.555702404096e-01 8.314696073647e-01 0.000000000000e+00 -5.555702531035e-01 8.314695988829e-01 0.000000000000e+00 -5.555702644246e-01 8.314695913184e-01 0.000000000000e+00 -5.555702744525e-01 8.314695846180e-01 0.000000000000e+00 -5.555702833986e-01 8.314695786404e-01 0.000000000000e+00 -5.555702912717e-01 8.314695733797e-01 0.000000000000e+00 -5.555702984030e-01 8.314695686148e-01 0.000000000000e+00 -5.555703045347e-01 8.314695645177e-01 0.000000000000e+00 -5.555703099006e-01 8.314695609323e-01 0.000000000000e+00 -5.555703146989e-01 8.314695577262e-01 0.000000000000e+00 -5.555703185576e-01 8.314695551479e-01 0.000000000000e+00 -5.555703217623e-01 8.314695530065e-01 0.000000000000e+00 -5.555703245382e-01 8.314695511517e-01 0.000000000000e+00 -5.555703261843e-01 8.314695500519e-01 0.000000000000e+00 -5.555703277475e-01 8.314695490074e-01 0.000000000000e+00 -5.555703282205e-01 8.314695486913e-01 0.000000000000e+00 -5.555703282234e-01 8.314695486894e-01 0.000000000000e+00 -5.555703273864e-01 8.314695492487e-01 0.000000000000e+00 -5.555703262004e-01 8.314695500411e-01 0.000000000000e+00 -5.555703234233e-01 8.314695518967e-01 0.000000000000e+00 -5.555703209387e-01 8.314695535569e-01 0.000000000000e+00 -5.555703167251e-01 8.314695563723e-01 0.000000000000e+00 -5.555703119933e-01 8.314695595340e-01 0.000000000000e+00 -5.555703066430e-01 8.314695631090e-01 0.000000000000e+00 -5.555702998793e-01 8.314695676283e-01 0.000000000000e+00 -5.555702929361e-01 8.314695722676e-01 0.000000000000e+00 -5.555702844408e-01 8.314695779440e-01 0.000000000000e+00 -5.555702754881e-01 8.314695839260e-01 0.000000000000e+00 -5.555702652653e-01 8.314695907567e-01 0.000000000000e+00 -5.555702540142e-01 8.314695982744e-01 0.000000000000e+00 -5.555702403370e-01 8.314696074132e-01 0.000000000000e+00 -6.343932921273e-01 7.730104468271e-01 0.000000000000e+00 -6.343933034657e-01 7.730104375220e-01 0.000000000000e+00 -6.343933134708e-01 7.730104293110e-01 0.000000000000e+00 -6.343933225170e-01 7.730104218870e-01 0.000000000000e+00 -6.343933305049e-01 7.730104153314e-01 0.000000000000e+00 -6.343933377089e-01 7.730104094193e-01 0.000000000000e+00 -6.343933439811e-01 7.730104042718e-01 0.000000000000e+00 -6.343933495704e-01 7.730103996848e-01 0.000000000000e+00 -6.343933545089e-01 7.730103956319e-01 0.000000000000e+00 -6.343933585698e-01 7.730103922992e-01 0.000000000000e+00 -6.343933621877e-01 7.730103893300e-01 0.000000000000e+00 -6.343933651576e-01 7.730103868927e-01 0.000000000000e+00 -6.343933673934e-01 7.730103850578e-01 0.000000000000e+00 -6.343933692621e-01 7.730103835242e-01 0.000000000000e+00 -6.343933703822e-01 7.730103826050e-01 0.000000000000e+00 -6.343933710582e-01 7.730103820502e-01 0.000000000000e+00 -6.343933709460e-01 7.730103821423e-01 0.000000000000e+00 -6.343933702780e-01 7.730103826905e-01 0.000000000000e+00 -6.343933689675e-01 7.730103837660e-01 0.000000000000e+00 -6.343933669337e-01 7.730103854351e-01 0.000000000000e+00 -6.343933639313e-01 7.730103878991e-01 0.000000000000e+00 -6.343933607750e-01 7.730103904894e-01 0.000000000000e+00 -6.343933562692e-01 7.730103941872e-01 0.000000000000e+00 -6.343933510321e-01 7.730103984852e-01 0.000000000000e+00 -6.343933457129e-01 7.730104028506e-01 0.000000000000e+00 -6.343933387927e-01 7.730104085298e-01 0.000000000000e+00 -6.343933313490e-01 7.730104146387e-01 0.000000000000e+00 -6.343933234367e-01 7.730104211322e-01 0.000000000000e+00 -6.343933142192e-01 7.730104286968e-01 0.000000000000e+00 -6.343933040057e-01 7.730104370788e-01 0.000000000000e+00 -6.343932921052e-01 7.730104468453e-01 0.000000000000e+00 7.071067917233e-01 -7.071067706498e-01 0.000000000000e+00 7.071067986597e-01 -7.071067637134e-01 0.000000000000e+00 7.071068069961e-01 -7.071067553770e-01 0.000000000000e+00 7.071068145066e-01 -7.071067478665e-01 0.000000000000e+00 7.071068209618e-01 -7.071067414113e-01 0.000000000000e+00 7.071068268118e-01 -7.071067355612e-01 0.000000000000e+00 7.071068319927e-01 -7.071067303804e-01 0.000000000000e+00 7.071068366921e-01 -7.071067256810e-01 0.000000000000e+00 7.071068407912e-01 -7.071067215819e-01 0.000000000000e+00 7.071068441869e-01 -7.071067181862e-01 0.000000000000e+00 7.071068469883e-01 -7.071067153848e-01 0.000000000000e+00 7.071068496752e-01 -7.071067126979e-01 0.000000000000e+00 7.071068518690e-01 -7.071067105041e-01 0.000000000000e+00 7.071068530373e-01 -7.071067093357e-01 0.000000000000e+00 7.071068538058e-01 -7.071067085673e-01 0.000000000000e+00 7.071068543769e-01 -7.071067079962e-01 0.000000000000e+00 7.071068541870e-01 -7.071067081861e-01 0.000000000000e+00 7.071068538058e-01 -7.071067085673e-01 0.000000000000e+00 7.071068526500e-01 -7.071067097231e-01 0.000000000000e+00 7.071068508803e-01 -7.071067114927e-01 0.000000000000e+00 7.071068482418e-01 -7.071067141313e-01 0.000000000000e+00 7.071068454950e-01 -7.071067168781e-01 0.000000000000e+00 7.071068419442e-01 -7.071067204289e-01 0.000000000000e+00 7.071068379285e-01 -7.071067244446e-01 0.000000000000e+00 7.071068330738e-01 -7.071067292993e-01 0.000000000000e+00 7.071068271150e-01 -7.071067352581e-01 0.000000000000e+00 7.071068216536e-01 -7.071067407195e-01 0.000000000000e+00 7.071068145066e-01 -7.071067478665e-01 0.000000000000e+00 7.071068064527e-01 -7.071067559204e-01 0.000000000000e+00 7.071067986597e-01 -7.071067637134e-01 0.000000000000e+00 7.071067886371e-01 -7.071067737360e-01 0.000000000000e+00 7.730104617051e-01 -6.343932739985e-01 0.000000000000e+00 7.730104683770e-01 -6.343932658687e-01 0.000000000000e+00 7.730104745263e-01 -6.343932583757e-01 0.000000000000e+00 7.730104800622e-01 -6.343932516302e-01 0.000000000000e+00 7.730104849362e-01 -6.343932456913e-01 0.000000000000e+00 7.730104894818e-01 -6.343932401525e-01 0.000000000000e+00 7.730104935053e-01 -6.343932352498e-01 0.000000000000e+00 7.730104969251e-01 -6.343932310828e-01 0.000000000000e+00 7.730105000246e-01 -6.343932273060e-01 0.000000000000e+00 7.730105026012e-01 -6.343932241664e-01 0.000000000000e+00 7.730105049235e-01 -6.343932213367e-01 0.000000000000e+00 7.730105067074e-01 -6.343932191630e-01 0.000000000000e+00 7.730105080491e-01 -6.343932175281e-01 0.000000000000e+00 7.730105092945e-01 -6.343932160106e-01 0.000000000000e+00 7.730105100010e-01 -6.343932151497e-01 0.000000000000e+00 7.730105099763e-01 -6.343932151799e-01 0.000000000000e+00 7.730105102422e-01 -6.343932148559e-01 0.000000000000e+00 7.730105095470e-01 -6.343932157030e-01 0.000000000000e+00 7.730105085814e-01 -6.343932168795e-01 0.000000000000e+00 7.730105071265e-01 -6.343932186523e-01 0.000000000000e+00 7.730105055419e-01 -6.343932205831e-01 0.000000000000e+00 7.730105030187e-01 -6.343932236577e-01 0.000000000000e+00 7.730105004837e-01 -6.343932267465e-01 0.000000000000e+00 7.730104971112e-01 -6.343932308559e-01 0.000000000000e+00 7.730104938030e-01 -6.343932348870e-01 0.000000000000e+00 7.730104895524e-01 -6.343932400664e-01 0.000000000000e+00 7.730104849204e-01 -6.343932457105e-01 0.000000000000e+00 7.730104801544e-01 -6.343932515179e-01 0.000000000000e+00 7.730104746682e-01 -6.343932582029e-01 0.000000000000e+00 7.730104684584e-01 -6.343932657695e-01 0.000000000000e+00 7.730104617413e-01 -6.343932739543e-01 0.000000000000e+00 8.314696203793e-01 -5.555702209319e-01 0.000000000000e+00 8.314696247696e-01 -5.555702143613e-01 0.000000000000e+00 8.314696287304e-01 -5.555702084336e-01 0.000000000000e+00 8.314696325060e-01 -5.555702027829e-01 0.000000000000e+00 8.314696357943e-01 -5.555701978617e-01 0.000000000000e+00 8.314696387962e-01 -5.555701933691e-01 0.000000000000e+00 8.314696415463e-01 -5.555701892532e-01 0.000000000000e+00 8.314696439746e-01 -5.555701856190e-01 0.000000000000e+00 8.314696460597e-01 -5.555701824985e-01 0.000000000000e+00 8.314696478431e-01 -5.555701798295e-01 0.000000000000e+00 8.314696493813e-01 -5.555701775273e-01 0.000000000000e+00 8.314696506943e-01 -5.555701755623e-01 0.000000000000e+00 8.314696515949e-01 -5.555701742145e-01 0.000000000000e+00 8.314696522221e-01 -5.555701732758e-01 0.000000000000e+00 8.314696527401e-01 -5.555701725005e-01 0.000000000000e+00 8.314696527674e-01 -5.555701724596e-01 0.000000000000e+00 8.314696525810e-01 -5.555701727386e-01 0.000000000000e+00 8.314696522054e-01 -5.555701733008e-01 0.000000000000e+00 8.314696514642e-01 -5.555701744100e-01 0.000000000000e+00 8.314696505273e-01 -5.555701758123e-01 0.000000000000e+00 8.314696492481e-01 -5.555701777267e-01 0.000000000000e+00 8.314696476081e-01 -5.555701801812e-01 0.000000000000e+00 8.314696459233e-01 -5.555701827026e-01 0.000000000000e+00 8.314696437976e-01 -5.555701858839e-01 0.000000000000e+00 8.314696411110e-01 -5.555701899046e-01 0.000000000000e+00 8.314696387689e-01 -5.555701934100e-01 0.000000000000e+00 8.314696355923e-01 -5.555701981640e-01 0.000000000000e+00 8.314696321744e-01 -5.555702032792e-01 0.000000000000e+00 8.314696286009e-01 -5.555702086273e-01 0.000000000000e+00 8.314696249710e-01 -5.555702140599e-01 0.000000000000e+00 8.314696202518e-01 -5.555702211227e-01 0.000000000000e+00 8.819212718774e-01 -4.713967227401e-01 0.000000000000e+00 8.819212742336e-01 -4.713967183320e-01 0.000000000000e+00 8.819212765736e-01 -4.713967139542e-01 0.000000000000e+00 8.819212786330e-01 -4.713967101013e-01 0.000000000000e+00 8.819212805090e-01 -4.713967065916e-01 0.000000000000e+00 8.819212823210e-01 -4.713967032015e-01 0.000000000000e+00 8.819212839908e-01 -4.713967000776e-01 0.000000000000e+00 8.819212852851e-01 -4.713966976562e-01 0.000000000000e+00 8.819212866008e-01 -4.713966951946e-01 0.000000000000e+00 8.819212878478e-01 -4.713966928617e-01 0.000000000000e+00 8.819212885934e-01 -4.713966914667e-01 0.000000000000e+00 8.819212894107e-01 -4.713966899377e-01 0.000000000000e+00 8.819212900023e-01 -4.713966888308e-01 0.000000000000e+00 8.819212903735e-01 -4.713966881364e-01 0.000000000000e+00 8.819212904877e-01 -4.713966879228e-01 0.000000000000e+00 8.819212905629e-01 -4.713966877821e-01 0.000000000000e+00 8.819212903348e-01 -4.713966882089e-01 0.000000000000e+00 8.819212901266e-01 -4.713966885983e-01 0.000000000000e+00 8.819212894402e-01 -4.713966898824e-01 0.000000000000e+00 8.819212890695e-01 -4.713966905759e-01 0.000000000000e+00 8.819212881732e-01 -4.713966922528e-01 0.000000000000e+00 8.819212873159e-01 -4.713966938568e-01 0.000000000000e+00 8.819212862135e-01 -4.713966959192e-01 0.000000000000e+00 8.819212850535e-01 -4.713966980893e-01 0.000000000000e+00 8.819212835317e-01 -4.713967009366e-01 0.000000000000e+00 8.819212821457e-01 -4.713967035295e-01 0.000000000000e+00 8.819212802606e-01 -4.713967070564e-01 0.000000000000e+00 8.819212785124e-01 -4.713967103270e-01 0.000000000000e+00 8.819212763825e-01 -4.713967143117e-01 0.000000000000e+00 8.819212741902e-01 -4.713967184132e-01 0.000000000000e+00 8.819212718345e-01 -4.713967228204e-01 0.000000000000e+00 9.238795391511e-01 -3.826834163353e-01 0.000000000000e+00 9.238795401409e-01 -3.826834139455e-01 0.000000000000e+00 9.238795410559e-01 -3.826834117367e-01 0.000000000000e+00 9.238795419803e-01 -3.826834095049e-01 0.000000000000e+00 9.238795428307e-01 -3.826834074518e-01 0.000000000000e+00 9.238795436543e-01 -3.826834054635e-01 0.000000000000e+00 9.238795443858e-01 -3.826834036976e-01 0.000000000000e+00 9.238795450769e-01 -3.826834020291e-01 0.000000000000e+00 9.238795457866e-01 -3.826834003158e-01 0.000000000000e+00 9.238795462826e-01 -3.826833991182e-01 0.000000000000e+00 9.238795467872e-01 -3.826833978999e-01 0.000000000000e+00 9.238795471524e-01 -3.826833970183e-01 0.000000000000e+00 9.238795474592e-01 -3.826833962775e-01 0.000000000000e+00 9.238795475758e-01 -3.826833959961e-01 0.000000000000e+00 9.238795476486e-01 -3.826833958203e-01 0.000000000000e+00 9.238795476283e-01 -3.826833958694e-01 0.000000000000e+00 9.238795475361e-01 -3.826833960920e-01 0.000000000000e+00 9.238795472163e-01 -3.826833968641e-01 0.000000000000e+00 9.238795470578e-01 -3.826833972468e-01 0.000000000000e+00 9.238795467333e-01 -3.826833980302e-01 0.000000000000e+00 9.238795462674e-01 -3.826833991548e-01 0.000000000000e+00 9.238795459650e-01 -3.826833998850e-01 0.000000000000e+00 9.238795454022e-01 -3.826834012437e-01 0.000000000000e+00 9.238795448763e-01 -3.826834025132e-01 0.000000000000e+00 9.238795442638e-01 -3.826834039921e-01 0.000000000000e+00 9.238795435237e-01 -3.826834057789e-01 0.000000000000e+00 9.238795428254e-01 -3.826834074647e-01 0.000000000000e+00 9.238795419044e-01 -3.826834096881e-01 0.000000000000e+00 9.238795411004e-01 -3.826834116293e-01 0.000000000000e+00 9.238795399347e-01 -3.826834144433e-01 0.000000000000e+00 9.238795391795e-01 -3.826834162666e-01 0.000000000000e+00 9.569403412040e-01 -2.902846592165e-01 0.000000000000e+00 9.569403412300e-01 -2.902846591307e-01 0.000000000000e+00 9.569403413701e-01 -2.902846586687e-01 0.000000000000e+00 9.569403414748e-01 -2.902846583236e-01 0.000000000000e+00 9.569403416645e-01 -2.902846576984e-01 0.000000000000e+00 9.569403418716e-01 -2.902846570155e-01 0.000000000000e+00 9.569403420673e-01 -2.902846563705e-01 0.000000000000e+00 9.569403423336e-01 -2.902846554925e-01 0.000000000000e+00 9.569403425363e-01 -2.902846548244e-01 0.000000000000e+00 9.569403427796e-01 -2.902846540224e-01 0.000000000000e+00 9.569403429663e-01 -2.902846534069e-01 0.000000000000e+00 9.569403431012e-01 -2.902846529621e-01 0.000000000000e+00 9.569403432240e-01 -2.902846525573e-01 0.000000000000e+00 9.569403432688e-01 -2.902846524097e-01 0.000000000000e+00 9.569403432694e-01 -2.902846524077e-01 0.000000000000e+00 9.569403432325e-01 -2.902846525292e-01 0.000000000000e+00 9.569403432078e-01 -2.902846526107e-01 0.000000000000e+00 9.569403430279e-01 -2.902846532039e-01 0.000000000000e+00 9.569403429431e-01 -2.902846534835e-01 0.000000000000e+00 9.569403428136e-01 -2.902846539103e-01 0.000000000000e+00 9.569403426812e-01 -2.902846543468e-01 0.000000000000e+00 9.569403424733e-01 -2.902846550320e-01 0.000000000000e+00 9.569403425183e-01 -2.902846548836e-01 0.000000000000e+00 9.569403422229e-01 -2.902846558576e-01 0.000000000000e+00 9.569403421916e-01 -2.902846559607e-01 0.000000000000e+00 9.569403419810e-01 -2.902846566549e-01 0.000000000000e+00 9.569403418786e-01 -2.902846569924e-01 0.000000000000e+00 9.569403416441e-01 -2.902846577656e-01 0.000000000000e+00 9.569403414155e-01 -2.902846585192e-01 0.000000000000e+00 9.569403413207e-01 -2.902846588317e-01 0.000000000000e+00 9.569403411453e-01 -2.902846594100e-01 0.000000000000e+00 9.807852843631e-01 -1.950903021083e-01 0.000000000000e+00 9.807852839663e-01 -1.950903041033e-01 0.000000000000e+00 9.807852836179e-01 -1.950903058547e-01 0.000000000000e+00 9.807852833940e-01 -1.950903069804e-01 0.000000000000e+00 9.807852832636e-01 -1.950903076361e-01 0.000000000000e+00 9.807852831731e-01 -1.950903080913e-01 0.000000000000e+00 9.807852831883e-01 -1.950903080145e-01 0.000000000000e+00 9.807852832245e-01 -1.950903078327e-01 0.000000000000e+00 9.807852832665e-01 -1.950903076214e-01 0.000000000000e+00 9.807852833302e-01 -1.950903073012e-01 0.000000000000e+00 9.807852833993e-01 -1.950903069537e-01 0.000000000000e+00 9.807852834352e-01 -1.950903067735e-01 0.000000000000e+00 9.807852834374e-01 -1.950903067625e-01 0.000000000000e+00 9.807852834903e-01 -1.950903064962e-01 0.000000000000e+00 9.807852834419e-01 -1.950903067399e-01 0.000000000000e+00 9.807852834338e-01 -1.950903067804e-01 0.000000000000e+00 9.807852833802e-01 -1.950903070500e-01 0.000000000000e+00 9.807852833274e-01 -1.950903073154e-01 0.000000000000e+00 9.807852832867e-01 -1.950903075199e-01 0.000000000000e+00 9.807852831643e-01 -1.950903081351e-01 0.000000000000e+00 9.807852832049e-01 -1.950903079313e-01 0.000000000000e+00 9.807852831278e-01 -1.950903083190e-01 0.000000000000e+00 9.807852831842e-01 -1.950903080354e-01 0.000000000000e+00 9.807852832263e-01 -1.950903078237e-01 0.000000000000e+00 9.807852832844e-01 -1.950903075313e-01 0.000000000000e+00 9.807852834402e-01 -1.950903067481e-01 0.000000000000e+00 9.807852834906e-01 -1.950903064950e-01 0.000000000000e+00 9.807852837037e-01 -1.950903054237e-01 0.000000000000e+00 9.807852838245e-01 -1.950903048162e-01 0.000000000000e+00 9.807852840541e-01 -1.950903036618e-01 0.000000000000e+00 9.807852843449e-01 -1.950903022001e-01 0.000000000000e+00 9.951847288685e-01 -9.801711802997e-02 0.000000000000e+00 9.951847282295e-01 -9.801712451749e-02 0.000000000000e+00 9.951847278266e-01 -9.801712860879e-02 0.000000000000e+00 9.951847276421e-01 -9.801713048169e-02 0.000000000000e+00 9.951847275638e-01 -9.801713127693e-02 0.000000000000e+00 9.951847275462e-01 -9.801713145581e-02 0.000000000000e+00 9.951847275420e-01 -9.801713149781e-02 0.000000000000e+00 9.951847275520e-01 -9.801713139715e-02 0.000000000000e+00 9.951847275651e-01 -9.801713126376e-02 0.000000000000e+00 9.951847275758e-01 -9.801713115539e-02 0.000000000000e+00 9.951847275890e-01 -9.801713102115e-02 0.000000000000e+00 9.951847275804e-01 -9.801713110811e-02 0.000000000000e+00 9.951847275858e-01 -9.801713105393e-02 0.000000000000e+00 9.951847275754e-01 -9.801713115925e-02 0.000000000000e+00 9.951847275576e-01 -9.801713134010e-02 0.000000000000e+00 9.951847275258e-01 -9.801713166318e-02 0.000000000000e+00 9.951847275130e-01 -9.801713179308e-02 0.000000000000e+00 9.951847274791e-01 -9.801713213727e-02 0.000000000000e+00 9.951847274022e-01 -9.801713291811e-02 0.000000000000e+00 9.951847274327e-01 -9.801713260780e-02 0.000000000000e+00 9.951847273314e-01 -9.801713363703e-02 0.000000000000e+00 9.951847273543e-01 -9.801713340430e-02 0.000000000000e+00 9.951847273073e-01 -9.801713388118e-02 0.000000000000e+00 9.951847273532e-01 -9.801713341487e-02 0.000000000000e+00 9.951847273437e-01 -9.801713351186e-02 0.000000000000e+00 9.951847274111e-01 -9.801713282733e-02 0.000000000000e+00 9.951847275556e-01 -9.801713136049e-02 0.000000000000e+00 9.951847276999e-01 -9.801712989561e-02 0.000000000000e+00 9.951847280377e-01 -9.801712646489e-02 0.000000000000e+00 9.951847284307e-01 -9.801712247552e-02 0.000000000000e+00 9.951847288044e-01 -9.801711868127e-02 0.000000000000e+00 9.999999830007e-01 -1.843873195330e-04 0.000000000000e+00 9.999999919010e-01 -1.272717167270e-04 0.000000000000e+00 9.999999934525e-01 -1.144330138607e-04 0.000000000000e+00 9.999999938333e-01 -1.110555462415e-04 0.000000000000e+00 9.999999939289e-01 -1.101919905789e-04 0.000000000000e+00 9.999999939480e-01 -1.100178720112e-04 0.000000000000e+00 9.999999939461e-01 -1.100356805110e-04 0.000000000000e+00 9.999999939384e-01 -1.101050080782e-04 0.000000000000e+00 9.999999939296e-01 -1.101855136186e-04 0.000000000000e+00 9.999999939208e-01 -1.102653187271e-04 0.000000000000e+00 9.999999939124e-01 -1.103408958004e-04 0.000000000000e+00 9.999999939046e-01 -1.104118398990e-04 0.000000000000e+00 9.999999938973e-01 -1.104782771832e-04 0.000000000000e+00 9.999999938905e-01 -1.105399606562e-04 0.000000000000e+00 9.999999938841e-01 -1.105978041246e-04 0.000000000000e+00 9.999999938781e-01 -1.106517753165e-04 0.000000000000e+00 9.999999938725e-01 -1.107019092337e-04 0.000000000000e+00 9.999999938674e-01 -1.107482921393e-04 0.000000000000e+00 9.999999938628e-01 -1.107897588895e-04 0.000000000000e+00 9.999999938590e-01 -1.108245380541e-04 0.000000000000e+00 9.999999938566e-01 -1.108462346178e-04 0.000000000000e+00 9.999999938569e-01 -1.108427820841e-04 0.000000000000e+00 9.999999938635e-01 -1.107837949246e-04 0.000000000000e+00 9.999999938832e-01 -1.106055296663e-04 0.000000000000e+00 9.999999939316e-01 -1.101669866851e-04 0.000000000000e+00 9.999999940409e-01 -1.091700561629e-04 0.000000000000e+00 9.999999942769e-01 -1.069867103881e-04 0.000000000000e+00 9.999999947659e-01 -1.023138182073e-04 0.000000000000e+00 9.999999957231e-01 -9.248632475422e-05 0.000000000000e+00 9.999999973998e-01 -7.211408866802e-05 0.000000000000e+00 9.999999995571e-01 -2.976340326990e-05 0.000000000000e+00 
        </DataArray>
        <DataArray type="Float64" Name="NORMSTRESS_2" NumberOfComponents="3" format="ascii">
          0.000000000000e+00 0.000000000000e+00 1.000000000000e+00 0.000000000000e+00 0.000000000000e+00 1.000000000000e+00 0.000000000000e+00 0.000000000000e+00 1.000000000000e+00 0.000000000000e+00 0.000000000000e+00 1.000000000000e+00 0.000000000000e+00 0.000000000000e+00 1.000000000000e+00 0.000000000000e+00 0.000000000000e+00 1.000000000000e+00 0.000000000000e+00 0.000000000000e+00 1.000000000000e+00 0.000000000000e+00 0.000000000000e+00 1.000000000000e+00 0.000000000000e+00 0.000000000000e+00 1.000000000000e+00 0.000000000000e+00 0.000000000000e+00 1.000000000000e+00 0.000000000000e+00 0.000000000000e+00 1.000000000000e+00 0.000000000000e+00 0.000000000000e+00 1.000000000000e+00 0.000000000000e+00 0.000000000000e+00 1.000000000000e+00 0.000000000000e+00 0.000000000000e+00 1.000000000000e+00 0.000000000000e+00 0.000000000000e+00 1.000000000000e+00 0.000000000000e+00 0.000000000000e+00 1.000000000000e+00 0.000000000000e+00 0.000000000000e+00 1.000000000000e+00 0.000000000000e+00 0.000000000000e+00 1.000000000000e+00 0.000000000000e+00 0.000000000000e+00 1.000000000000e+00 0.000000000000e+00 0.000000000000e+00 1.000000000000e+00 0.000000000000e+00 0.000000000000e+00 1.000000000000e+00 0.000000000000e+00 0.000000000000e+00 1.000000000000e+00 0.000000000000e+00 0.000000000000e+00 1.000000000000e+00 0.000000000000e+00 0.000000000000e+00 1.000000000000e+00 0.000000000000e+00 0.000000000000e+00 1.000000000000e+00 0.000000000000e+00 0.000000000000e+00 1.000000000000e+00 0.000000000000e+00 0.000000000000e+00 1.000000000000e+00 0.000000000000e+00 0.000000000000e+00 1.000000000000e+00 0.000000000000e+00 0.000000000000e+00 1.000000000000e+00 0.000000000000e+00 0.000000000000e+00 1.000000000000e+00 0.000000000000e+00 0.000000000000e+00 1.000000000000e+00 0.000000000000e+00 0.000000000000e+00 1.000000000000e+00 0.000000000000e+00 0.000000000000e+00 1.000000000000e+00 0.000000000000e+00 0.000000000000e+00 1.000000000000e+00 0.000000000000e+00 0.000000000000e+00 1.000000000000e+00 0.000000000000e+00 0.000000000000e+00 1.000000000000e+00 0.000000000000e+00 0.000000000000e+00 1.000000000000e+00 0.000000000000e+00 0.000000000000e+00 1.000000000000e+00 0.000000000000e+00 0.000000000000e+00 1.000000000000e+00 0.000000000000e+00 0.000000000000e+00 1.000000000000e+00 0.000000000000e+00 0.000000000000e+00 1.000000000000e+00 0.000000000000e+00 0.000000000000e+00 1.000000000000e+00 0.000000000000e+00 0.000000000000e+00 1.000000000000e+00 0.000000000000e+00 0.000000000000e+00 1.000000000000e+00 0.000000000000e+00 0.000000000000e+00 1.000000000000e+00 0.000000000000e+00 0.000000000000e+00 1.000000000000e+00 0.000000000000e+00 0.000000000000e+00 1.000000000000e+00 0.000000000000e+00 0.000000000000e+00 1.000000000000e+00 0.000000000000e+00 0.000000000000e+00 1.000000000000e+00 0.000000000000e+00 0.000000000000e+00 1.000000000000e+00 0.000000000000e+00 0.000000000000e+00 1.000000000000e+00 0.000000000000e+00 0.000000000000e+00 1.000000000000e+00 0.000000000000e+00 0.000000000000e+00 1.000000000000e+00 0.000000000000e+00 0.000000000000e+00 1.000000000000e+00 0.000000000000e+00 0.000000000000e+00 1.000000000000e+00 0.000000000000e+00 0.000000000000e+00 1.000000000000e+00 0.000000000000e+00 0.000000000000e+00 1.000000000000e+00 0.000000000000e+00 0.000000000000e+00 1.000000000000e+00 0.000000000000e+00 0.000000000000e+00 1.000000000000e+00 0.000000000000e+00 0.000000000000e+00 1.000000000000e+00 0.000000000000e+00 0.000000000000e+00 1.000000000000e+00 0.000000000000e+00 0.000000000000e+00 1.000000000000e+00 0.000000000000e+00 0.000000000000e+00 1.000000000000e+00 0.000000000000e+00 0.000000000000e+00 1.000000000000e+00 0.000000000000e+00 0.000000000000e+00 1.000000000000e+00 0.000000000000e+00 0.000000000000e+00 1.000000000000e+00 0.000000000000e+00 0.000000000000e+00 1.000000000000e+00 0.000000000000e+00 0.000000000000e+00 1.000000000000e+00 0.000000000000e+00 0.000000000000e+00 1.000000000000e+00 0.000000000000e+00 0.000000000000e+00 1.000000000000e+00 0.000000000000e+00 0.000000000000e+00 1.000000000000e+00 0.000000000000e+00 0.000000000000e+00 1.000000000000e+00 0.000000000000e+00 0.000000000000e+00 1.000000000000e+00 0.000000000000e+00 0.000000000000e+00 1.000000000000e+00 0.000000000000e+00 0.000000000000e+00 1.000000000000e+00 0.000000000000e+00 0.000000000000e+00 1.000000000000e+00 0.000000000000e+00 0.000000000000e+00 1.000000000000e+00 0.000000000000e+00 0.000000000000e+00 1.000000000000e+00 0.000000000000e+00 0.000000000000e+00 1.000000000000e+00 0.000000000000e+00 0.000000000000e+00 1.000000000000e+00 0.000000000000e+00 0.000000000000e+00 1.000000000000e+00 0.000000000000e+00 0.000000000000e+00 1.000000000000e+00 0.000000000000e+00 0.000000000000e+00 1.000000000000e+00 0.000000000000e+00 0.000000000000e+00 1.000000000000e+00 0.000000000000e+00 0.000000000000e+00 1.000000000000e+00 0.000000000000e+00 0.000000000000e+00 1.000000000000e+00 0.000000000000e+00 0.000000000000e+00 1.000000000000e+00 0.000000000000e+00 0.000000000000e+00 1.000000000000e+00 0.000000000000e+00 0.000000000000e+00 1.000000000000e+00 0.000000000000e+00 0.000000000000e+00 1.000000000000e+00 0.000000000000e+00 0.000000000000e+00 1.000000000000e+00 0.000000000000e+00 0.000000000000e+00 1.000000000000e+00 0.000000000000e+00 0.000000000000e+00 1.000000000000e+00 0.000000000000e+00 0.000000000000e+00 1.000000000000e+00 0.000000000000e+00 0.000000000000e+00 1.000000000000e+00 0.000000000000e+00 0.000000000000e+00 1.000000000000e+00 0.000000000000e+00 0.000000000000e+00 1.000000000000e+00 0.000000000000e+00 0.000000000000e+00 1.000000000000e+00 0.000000000000e+00 0.000000000000e+00 1.000000000000e+00 0.000000000000e+00 0.000000000000e+00 1.000000000000e+00 0.000000000000e+00 0.000000000000e+00 1.000000000000e+00 0.000000000000e+00 0.000000000000e+00 1.000000000000e+00 0.000000000000e+00 0.000000000000e+00 1.000000000000e+00 0.000000000000e+00 0.000000000000e+00 1.000000000000e+00 0.000000000000e+00 0.000000000000e+00 1.000000000000e+00 0.000000000000e+00 0.000000000000e+00 1.000000000000e+00 0.000000000000e+00 0.000000000000e+00 1.000000000000e+00 0.000000000000e+00 0.000000000000e+00 1.000000000000e+00 0.000000000000e+00 0.000000000000e+00 1.000000000000e+00 0.000000000000e+00 0.000000000000e+00 1.000000000000e+00 0.000000000000e+00 0.000000000000e+00 1.000000000000e+00 0.000000000000e+00 0.000000000000e+00 1.000000000000e+00 0.000000000000e+00 0.000000000000e+00 1.000000000000e+00 0.000000000000e+00 0.000000000000e+00 1.000000000000e+00 0.000000000000e+00 0.000000000000e+00 1.000000000000e+00 0.000000000000e+00 0.000000000000e+00 1.000000000000e+00 0.000000000000e+00 0.000000000000e+00 1.000000000000e+00 0.000000000000e+00 0.000000000000e+00 1.000000000000e+00 0.000000000000e+00 0.000000000000e+00 1.000000000000e+00 0.000000000000e+00 0.000000000000e+00 1.000000000000e+00 0.000000000000e+00 0.000000000000e+00 1.000000000000e+00 0.000000000000e+00 0.000000000000e+00 1.000000000000e+00 0.000000000000e+00 0.000000000000e+00 1.000000000000e+00 0.000000000000e+00 0.000000000000e+00 1.000000000000e+00 0.000000000000e+00 0.000000000000e+00 1.000000000000e+00 0.000000000000e+00 0.000000000000e+00 1.000000000000e+00 0.000000000000e+00 0.000000000000e+00 1.000000000000e+00 0.000000000000e+00 0.000000000000e+00 1.000000000000e+00 0.000000000000e+00 0.000000000000e+00 1.000000000000e+00 0.000000000000e+00 0.000000000000e+00 1.000000000000e+00 0.000000000000e+00 0.000000000000e+00 1.000000000000e+00 0.000000000000e+00 0.000000000000e+00 1.000000000000e+00 0.000000000000e+00 0.000000000000e+00 1.000000000000e+00 0.000000000000e+00 0.000000000000e+00 1.000000000000e+00 0.000000000000e+00 0.000000000000e+00 1.000000000000e+00 0.000000000000e+00 0.000000000000e+00 1.000000000000e+00 0.000000000000e+00 0.000000000000e+00 1.000000000000e+00 0.000000000000e+00 0.000000000000e+00 1.000000000000e+00 0.000000000000e+00 0.000000000000e+00 1.000000000000e+00 0.000000000000e+00 0.000000000000e+00 1.000000000000e+00 0.000000000000e+00 0.000000000000e+00 1.000000000000e+00 0.000000000000e+00 0.000000000000e+00 1.000000000000e+00 0.000000000000e+00 0.000000000000e+00 1.000000000000e+00 0.000000000000e+00 0.000000000000e+00 1.000000000000e+00 0.000000000000e+00 0.000000000000e+00 1.000000000000e+00 0.000000000000e+00 0.000000000000e+00 1.000000000000e+00 0.000000000000e+00 0.000000000000e+00 1.000000000000e+00 0.000000000000e+00 0.000000000000e+00 1.000000000000e+00 0.000000000000e+00 0.000000000000e+00 1.000000000000e+00 0.000000000000e+00 0.000000000000e+00 1.000000000000e+00 0.000000000000e+00 0.000000000000e+00 1.000000000000e+00 0.000000000000e+00 0.000000000000e+00 1.000000000000e+00 0.000000000000e+00 0.000000000000e+00 1.000000000000e+00 0.000000000000e+00 0.000000000000e+00 1.000000000000e+00 0.000000000000e+00 0.000000000000e+00 1.000000000000e+00 0.000000000000e+00 0.000000000000e+00 1.000000000000e+00 0.000000000000e+00 0.000000000000e+00 1.000000000000e+00 0.000000000000e+00 0.000000000000e+00 1.000000000000e+00 0.000000000000e+00 0.000000000000e+00 1.000000000000e+00 0.000000000000e+00 0.000000000000e+00 1.000000000000e+00 0.000000000000e+00 0.000000000000e+00 1.000000000000e+00 0.000000000000e+00 0.000000000000e+00 1.000000000000e+00 0.000000000000e+00 0.000000000000e+00 1.000000000000e+00 0.000000000000e+00 0.000000000000e+00 1.000000000000e+00 0.000000000000e+00 0.000000000000e+00 1.000000000000e+00 0.000000000000e+00 0.000000000000e+00 1.000000000000e+00 0.000000000000e+00 0.000000000000e+00 1.000000000000e+00 0.000000000000e+00 0.000000000000e+00 1.000000000000e+00 0.000000000000e+00 0.000000000000e+00 1.000000000000e+00 0.000000000000e+00 0.000000000000e+00 1.000000000000e+00 0.000000000000e+00 0.000000000000e+00 1.000000000000e+00 0.000000000000e+00 0.000000000000e+00 1.000000000000e+00 0.000000000000e+00 0.000000000000e+00 1.000000000000e+00 0.000000000000e+00 0.000000000000e+00 1.000000000000e+00 0.000000000000e+00 0.000000000000e+00 1.000000000000e+00 0.000000000000e+00 0.000000000000e+00 1.000000000000e+00 0.000000000000e+00 0.000000000000e+00 1.000000000000e+00 0.000000000000e+00 0.000000000000e+00 1.000000000000e+00 0.000000000000e+00 0.000000000000e+00 1.000000000000e+00 0.000000000000e+00 0.000000000000e+00 1.000000000000e+00 0.000000000000e+00 0.000000000000e+00 1.000000000000e+00 0.000000000000e+00 0.000000000000e+00 1.000000000000e+00 0.000000000000e+00 0.000000000000e+00 1.000000000000e+00 0.000000000000e+00 0.000000000000e+00 1.000000000000e+00 0.000000000000e+00 0.000000000000e+00 1.000000000000e+00 0.000000000000e+00 0.000000000000e+00 1.000000000000e+00 0.000000000000e+00 0.000000000000e+00 1.000000000000e+00 0.000000000000e+00 0.000000000000e+00 1.000000000000e+00 0.000000000000e+00 0.000000000000e+00 1.000000000000e+00 0.000000000000e+00 0.000000000000e+00 1.000000000000e+00 0.000000000000e+00 0.000000000000e+00 1.000000000000e+00 0.000000000000e+00 0.000000000000e+00 1.000000000000e+00 0.000000000000e+00 0.000000000000e+00 1.000000000000e+00 0.000000000000e+00 0.000000000000e+00 1.000000000000e+00 0.000000000000e+00 0.000000000000e+00 1.000000000000e+00 0.000000000000e+00 0.000000000000e+00 1.000000000000e+00 0.000000000000e+00 0.000000000000e+00 1.000000000000e+00 0.000000000000e+00 0.000000000000e+00 1.000000000000e+00 0.000000000000e+00 0.000000000000e+00 1.000000000000e+00 0.000000000000e+00 0.000000000000e+00 1.000000000000e+00 0.000000000000e+00 0.000000000000e+00 1.000000000000e+00 0.000000000000e+00 0.000000000000e+00 1.000000000000e+00 0.000000000000e+00 0.000000000000e+00 1.000000000000e+00 0.000000000000e+00 0.000000000000e+00 1.000000000000e+00 0.000000000000e+00 0.000000000000e+00 1.000000000000e+00 0.000000000000e+00 0.000000000000e+00 1.000000000000e+00 0.000000000000e+00 0.000000000000e+00 1.000000000000e+00 0.000000000000e+00 0.000000000000e+00 1.000000000000e+00 0.000000000000e+00 0.000000000000e+00 1.000000000000e+00 0.000000000000e+00 0.000000000000e+00 1.000000000000e+00 0.000000000000e+00 0.000000000000e+00 1.000000000000e+00 0.000000000000e+00 0.000000000000e+00 1.000000000000e+00 0.000000000000e+00 0.000000000000e+00 1.000000000000e+00 0.000000000000e+00 0.000000000000e+00 1.000000000000e+00 0.000000000000e+00 0.000000000000e+00 1.000000000000e+00 0.000000000000e+00 0.000000000000e+00 1.000000000000e+00 0.000000000000e+00 0.000000000000e+00 1.000000000000e+00 0.000000000000e+00 0.000000000000e+00 1.000000000000e+00 0.000000000000e+00 0.000000000000e+00 1.000000000000e+00 0.000000000000e+00 0.000000000000e+00 1.000000000000e+00 0.000000000000e+00 0.000000000000e+00 1.000000000000e+00 0.000000000000e+00 0.000000000000e+00 1.000000000000e+00 0.000000000000e+00 0.000000000000e+00 1.000000000000e+00 0.000000000000e+00 0.000000000000e+00 1.000000000000e+00 0.000000000000e+00 0.000000000000e+00 1.000000000000e+00 0.000000000000e+00 0.000000000000e+00 1.000000000000e+00 0.000000000000e+00 0.000000000000e+00 1.000000000000e+00 0.000000000000e+00 0.000000000000e+00 1.000000000000e+00 0.000000000000e+00 0.000000000000e+00 1.000000000000e+00 0.000000000000e+00 0.000000000000e+00 1.000000000000e+00 0.000000000000e+00 0.000000000000e+00 1.000000000000e+00 0.000000000000e+00 0.000000000000e+00 1.000000000000e+00 0.000000000000e+00 0.000000000000e+00 1.000000000000e+00 0.000000000000e+00 0.000000000000e+00 1.000000000000e+00 0.000000000000e+00 0.000000000000e+00 1.000000000000e+00 0.000000000000e+00 0.000000000000e+00 1.000000000000e+00 0.000000000000e+00 0.000000000000e+00 1.000000000000e+00 0.000000000000e+00 0.000000000000e+00 1.000000000000e+00 0.000000000000e+00 0.000000000000e+00 1.000000000000e+00 0.000000000000e+00 0.000000000000e+00 1.000000000000e+00 0.000000000000e+00 0.000000000000e+00 1.000000000000e+00 0.000000000000e+00 0.000000000000e+00 1.000000000000e+00 0.000000000000e+00 0.000000000000e+00 1.000000000000e+00 0.000000000000e+00 0.000000000000e+00 1.000000000000e+00 0.000000000000e+00 0.000000000000e+00 1.000000000000e+00 0.000000000000e+00 0.000000000000e+00 1.000000000000e+00 0.000000000000e+00 0.000000000000e+00 1.000000000000e+00 0.000000000000e+00 0.000000000000e+00 1.000000000000e+00 0.000000000000e+00 0.000000000000e+00 1.000000000000e+00 0.000000000000e+00 0.000000000000e+00 1.000000000000e+00 0.000000000000e+00 0.000000000000e+00 1.000000000000e+00 0.000000000000e+00 0.000000000000e+00 1.000000000000e+00 0.000000000000e+00 0.000000000000e+00 1.000000000000e+00 0.000000000000e+00 0.000000000000e+00 1.000000000000e+00 0.000000000000e+00 0.000000000000e+00 1.000000000000e+00 0.000000000000e+00 0.000000000000e+00 1.000000000000e+00 0.000000000000e+00 0.000000000000e+00 1.000000000000e+00 0.000000000000e+00 0.000000000000e+00 1.000000000000e+00 0.000000000000e+00 0.000000000000e+00 1.000000000000e+00 0.000000000000e+00 0.000000000000e+00 1.000000000000e+00 0.000000000000e+00 0.000000000000e+00 1.000000000000e+00 0.000000000000e+00 0.000000000000e+00 1.000000000000e+00 0.000000000000e+00 0.000000000000e+00 1.000000000000e+00 0.000000000000e+00 0.000000000000e+00 1.000000000000e+00 0.000000000000e+00 0.000000000000e+00 1.000000000000e+00 0.000000000000e+00 0.000000000000e+00 1.000000000000e+00 0.000000000000e+00 0.000000000000e+00 1.000000000000e+00 0.000000000000e+00 0.000000000000e+00 1.000000000000e+00 0.000000000000e+00 0.000000000000e+00 1.000000000000e+00 0.000000000000e+00 0.000000000000e+00 1.000000000000e+00 0.000000000000e+00 0.000000000000e+00 1.000000000000e+00 0.000000000000e+00 0.000000000000e+00 1.000000000000e+00 0.000000000000e+00 0.000000000000e+00 1.000000000000e+00 0.000000000000e+00 0.000000000000e+00 1.000000000000e+00 0.000000000000e+00 0.000000000000e+00 1.000000000000e+00 0.000000000000e+00 0.000000000000e+00 1.000000000000e+00 0.000000000000e+00 0.000000000000e+00 1.000000000000e+00 0.000000000000e+00 0.000000000000e+00 1.000000000000e+00 0.000000000000e+00 0.000000000000e+00 1.000000000000e+00 0.000000000000e+00 0.000000000000e+00 1.000000000000e+00 0.000000000000e+00 0.000000000000e+00 1.000000000000e+00 0.000000000000e+00 0.000000000000e+00 1.000000000000e+00 0.000000000000e+00 0.000000000000e+00 1.000000000000e+00 0.000000000000e+00 0.000000000000e+00 1.000000000000e+00 0.000000000000e+00 0.000000000000e+00 1.000000000000e+00 0.000000000000e+00 0.000000000000e+00 1.000000000000e+00 0.000000000000e+00 0.000000000000e+00 1.000000000000e+00 0.000000000000e+00 0.000000000000e+00 1.000000000000e+00 0.000000000000e+00 0.000000000000e+00 1.000000000000e+00 0.000000000000e+00 0.000000000000e+00 1.000000000000e+00 0.000000000000e+00 0.000000000000e+00 1.000000000000e+00 0.000000000000e+00 0.000000000000e+00 1.000000000000e+00 0.000000000000e+00 0.000000000000e+00 1.000000000000e+00 0.000000000000e+00 0.000000000000e+00 1.000000000000e+00 0.000000000000e+00 0.000000000000e+00 1.000000000000e+00 0.000000000000e+00 0.000000000000e+00 1.000000000000e+00 0.000000000000e+00 0.000000000000e+00 1.000000000000e+00 0.000000000000e+00 0.000000000000e+00 1.000000000000e+00 0.000000000000e+00 0.000000000000e+00 1.000000000000e+00 0.000000000000e+00 0.000000000000e+00 1.000000000000e+00 0.000000000000e+00 0.000000000000e+00 1.000000000000e+00 0.000000000000e+00 0.000000000000e+00 1.000000000000e+00 0.000000000000e+00 0.000000000000e+00 1.000000000000e+00 0.000000000000e+00 0.000000000000e+00 1.000000000000e+00 0.000000000000e+00 0.000000000000e+00 1.000000000000e+00 0.000000000000e+00 0.000000000000e+00 1.000000000000e+00 0.000000000000e+00 0.000000000000e+00 1.000000000000e+00 0.000000000000e+00 0.000000000000e+00 1.000000000000e+00 0.000000000000e+00 0.000000000000e+00 1.000000000000e+00 0.000000000000e+00 0.000000000000e+00 1.000000000000e+00 0.000000000000e+00 0.000000000000e+00 1.000000000000e+00 0.000000000000e+00 0.000000000000e+00 1.000000000000e+00 0.000000000000e+00 0.000000000000e+00 1.000000000000e+00 0.000000000000e+00 0.000000000000e+00 1.000000000000e+00 0.000000000000e+00 0.000000000000e+00 1.000000000000e+00 0.000000000000e+00 0.000000000000e+00 1.000000000000e+00 0.000000000000e+00 0.000000000000e+00 1.000000000000e+00 0.000000000000e+00 0.000000000000e+00 1.000000000000e+00 0.000000000000e+00 0.000000000000e+00 1.000000000000e+00 0.000000000000e+00 0.000000000000e+00 1.000000000000e+00 0.000000000000e+00 0.000000000000e+00 1.000000000000e+00 0.000000000000e+00 0.000000000000e+00 1.000000000000e+00 0.000000000000e+00 0.000000000000e+00 1.000000000000e+00 0.000000000000e+00 0.000000000000e+00 1.000000000000e+00 0.000000000000e+00 0.000000000000e+00 1.000000000000e+00 0.000000000000e+00 0.000000000000e+00 1.000000000000e+00 0.000000000000e+00 0.000000000000e+00 1.000000000000e+00 0.000000000000e+00 0.000000000000e+00 1.000000000000e+00 0.000000000000e+00 0.000000000000e+00 1.000000000000e+00 0.000000000000e+00 0.000000000000e+00 1.000000000000e+00 0.000000000000e+00 0.000000000000e+00 1.000000000000e+00 0.000000000000e+00 0.000000000000e+00 1.000000000000e+00 0.000000000000e+00 0.000000000000e+00 1.000000000000e+00 0.000000000000e+00 0.000000000000e+00 1.000000000000e+00 0.000000000000e+00 0.000000000000e+00 1.000000000000e+00 0.000000000000e+00 0.000000000000e+00 1.000000000000e+00 0.000000000000e+00 0.000000000000e+00 1.000000000000e+00 0.000000000000e+00 0.000000000000e+00 1.000000000000e+00 0.000000000000e+00 0.000000000000e+00 1.000000000000e+00 0.000000000000e+00 0.000000000000e+00 1.000000000000e+00 0.000000000000e+00 0.000000000000e+00 1.000000000000e+00 0.000000000000e+00 0.000000000000e+00 1.000000000000e+00 0.000000000000e+00 0.000000000000e+00 1.000000000000e+00 0.000000000000e+00 0.000000000000e+00 1.000000000000e+00 0.000000000000e+00 0.000000000000e+00 1.000000000000e+00 0.000000000000e+00 0.000000000000e+00 1.000000000000e+00 0.000000000000e+00 0.000000000000e+00 1.000000000000e+00 0.000000000000e+00 0.000000000000e+00 1.000000000000e+00 0.000000000000e+00 0.000000000000e+00 1.000000000000e+00 0.000000000000e+00 0.000000000000e+00 1.000000000000e+00 0.000000000000e+00 0.000000000000e+00 1.000000000000e+00 0.000000000000e+00 0.000000000000e+00 1.000000000000e+00 0.000000000000e+00 0.000000000000e+00 1.000000000000e+00 0.000000000000e+00 0.000000000000e+00 1.000000000000e+00 0.000000000000e+00 0.000000000000e+00 1.000000000000e+00 0.000000000000e+00 0.000000000000e+00 1.000000000000e+00 0.000000000000e+00 0.000000000000e+00 1.000000000000e+00 0.000000000000e+00 0.000000000000e+00 1.000000000000e+00 0.000000000000e+00 0.000000000000e+00 1.000000000000e+00 0.000000000000e+00 0.000000000000e+00 1.000000000000e+00 0.000000000000e+00 0.000000000000e+00 1.000000000000e+00 0.000000000000e+00 0.000000000000e+00 1.000000000000e+00 0.000000000000e+00 0.000000000000e+00 1.000000000000e+00 0.000000000000e+00 0.000000000000e+00 1.000000000000e+00 0.000000000000e+00 0.000000000000e+00 1.000000000000e+00 0.000000000000e+00 0.000000000000e+00 1.000000000000e+00 0.000000000000e+00 0.000000000000e+00 1.000000000000e+00 0.000000000000e+00 0.000000000000e+00 1.000000000000e+00 0.000000000000e+00 0.000000000000e+00 1.000000000000e+00 0.000000000000e+00 0.000000000000e+00 1.000000000000e+00 0.000000000000e+00 0.000000000000e+00 1.000000000000e+00 0.000000000000e+00 0.000000000000e+00 1.000000000000e+00 0.000000000000e+00 0.000000000000e+00 1.000000000000e+00 0.000000000000e+00 0.000000000000e+00 1.000000000000e+00 0.000000000000e+00 0.000000000000e+00 1.000000000000e+00 0.000000000000e+00 0.000000000000e+00 1.000000000000e+00 0.000000000000e+00 0.000000000000e+00 1.000000000000e+00 0.000000000000e+00 0.000000000000e+00 1.000000000000e+00 0.000000000000e+00 0.000000000000e+00 1.000000000000e+00 0.000000000000e+00 0.000000000000e+00 1.000000000000e+00 0.000000000000e+00 0.000000000000e+00 1.000000000000e+00 0.000000000000e+00 0.000000000000e+00 1.000000000000e+00 0.000000000000e+00 0.000000000000e+00 1.000000000000e+00 0.000000000000e+00 0.000000000000e+00 1.000000000000e+00 0.000000000000e+00 0.000000000000e+00 1.000000000000e+00 0.000000000000e+00 0.000000000000e+00 1.000000000000e+00 0.000000000000e+00 0.000000000000e+00 1.000000000000e+00 0.000000000000e+00 0.000000000000e+00 1.000000000000e+00 0.000000000000e+00 0.000000000000e+00 1.000000000000e+00 0.000000000000e+00 0.000000000000e+00 1.000000000000e+00 0.000000000000e+00 0.000000000000e+00 1.000000000000e+00 0.000000000000e+00 0.000000000000e+00 1.000000000000e+00 0.000000000000e+00 0.000000000000e+00 1.000000000000e+00 0.000000000000e+00 0.000000000000e+00 1.000000000000e+00 0.000000000000e+00 0.000000000000e+00 1.000000000000e+00 0.000000000000e+00 0.000000000000e+00 1.000000000000e+00 0.000000000000e+00 0.000000000000e+00 1.000000000000e+00 0.000000000000e+00 0.000000000000e+00 1.000000000000e+00 0.000000000000e+00 0.000000000000e+00 1.000000000000e+00 0.000000000000e+00 0.000000000000e+00 1.000000000000e+00 0.000000000000e+00 0.000000000000e+00 1.000000000000e+00 0.000000000000e+00 0.000000000000e+00 1.000000000000e+00 0.000000000000e+00 0.000000000000e+00 1.000000000000e+00 0.000000000000e+00 0.000000000000e+00 1.000000000000e+00 0.000000000000e+00 0.000000000000e+00 1.000000000000e+00 0.000000000000e+00 0.000000000000e+00 1.000000000000e+00 0.000000000000e+00 0.000000000000e+00 1.000000000000e+00 0.000000000000e+00 0.000000000000e+00 1.000000000000e+00 0.000000000000e+00 0.000000000000e+00 1.000000000000e+00 0.000000000000e+00 0.000000000000e+00 1.000000000000e+00 0.000000000000e+00 0.000000000000e+00 1.000000000000e+00 0.000000000000e+00 0.000000000000e+00 1.000000000000e+00 0.000000000000e+00 0.000000000000e+00 1.000000000000e+00 0.000000000000e+00 0.000000000000e+00 1.000000000000e+00 0.000000000000e+00 0.000000000000e+00 1.000000000000e+00 0.000000000000e+00 0.000000000000e+00 1.000000000000e+00 0.000000000000e+00 0.000000000000e+00 1.000000000000e+00 0.000000000000e+00 0.000000000000e+00 1.000000000000e+00 0.000000000000e+00 0.000000000000e+00 1.000000000000e+00 0.000000000000e+00 0.000000000000e+00 1.000000000000e+00 0.000000000000e+00 0.000000000000e+00 1.000000000000e+00 0.000000000000e+00 0.000000000000e+00 1.000000000000e+00 0.000000000000e+00 0.000000000000e+00 1.000000000000e+00 0.000000000000e+00 0.000000000000e+00 1.000000000000e+00 0.000000000000e+00 0.000000000000e+00 1.000000000000e+00 0.000000000000e+00 0.000000000000e+00 1.000000000000e+00 0.000000000000e+00 0.000000000000e+00 1.000000000000e+00 0.000000000000e+00 0.000000000000e+00 1.000000000000e+00 0.000000000000e+00 0.000000000000e+00 1.000000000000e+00 0.000000000000e+00 0.000000000000e+00 1.000000000000e+00 0.000000000000e+00 0.000000000000e+00 1.000000000000e+00 0.000000000000e+00 0.000000000000e+00 1.000000000000e+00 0.000000000000e+00 0.000000000000e+00 1.000000000000e+00 0.000000000000e+00 0.000000000000e+00 1.000000000000e+00 0.000000000000e+00 0.000000000000e+00 1.000000000000e+00 0.000000000000e+00 0.000000000000e+00 1.000000000000e+00 0.000000000000e+00 0.000000000000e+00 1.000000000000e+00 0.000000000000e+00 0.000000000000e+00 1.000000000000e+00 0.000000000000e+00 0.000000000000e+00 1.000000000000e+00 0.000000000000e+00 0.000000000000e+00 1.000000000000e+00 0.000000000000e+00 0.000000000000e+00 1.000000000000e+00 0.000000000000e+00 0.000000000000e+00 1.000000000000e+00 0.000000000000e+00 0.000000000000e+00 1.000000000000e+00 0.000000000000e+00 0.000000000000e+00 1.000000000000e+00 0.000000000000e+00 0.000000000000e+00 1.000000000000e+00 0.000000000000e+00 0.000000000000e+00 1.000000000000e+00 0.000000000000e+00 0.000000000000e+00 1.000000000000e+00 0.000000000000e+00 0.000000000000e+00 1.000000000000e+00 0.000000000000e+00 0.000000000000e+00 1.000000000000e+00 0.000000000000e+00 0.000000000000e+00 1.000000000000e+00 0.000000000000e+00 0.000000000000e+00 1.000000000000e+00 0.000000000000e+00 0.000000000000e+00 1.000000000000e+00 0.000000000000e+00 0.000000000000e+00 1.000000000000e+00 0.000000000000e+00 0.000000000000e+00 1.000000000000e+00 0.000000000000e+00 0.000000000000e+00 1.000000000000e+00 0.000000000000e+00 0.000000000000e+00 1.000000000000e+00 0.000000000000e+00 0.000000000000e+00 1.000000000000e+00 0.000000000000e+00 0.000000000000e+00 1.000000000000e+00 0.000000000000e+00 0.000000000000e+00 1.000000000000e+00 0.000000000000e+00 0.000000000000e+00 1.000000000000e+00 0.000000000000e+00 0.000000000000e+00 1.000000000000e+00 0.000000000000e+00 0.000000000000e+00 1.000000000000e+00 0.000000000000e+00 0.000000000000e+00 1.000000000000e+00 0.000000000000e+00 0.000000000000e+00 1.000000000000e+00 0.000000000000e+00 0.000000000000e+00 1.000000000000e+00 0.000000000000e+00 0.000000000000e+00 1.000000000000e+00 0.000000000000e+00 0.000000000000e+00 1.000000000000e+00 0.000000000000e+00 0.000000000000e+00 1.000000000000e+00 0.000000000000e+00 0.000000000000e+00 1.000000000000e+00 0.000000000000e+00 0.000000000000e+00 1.000000000000e+00 0.000000000000e+00 0.000000000000e+00 1.000000000000e+00 0.000000000000e+00 0.000000000000e+00 1.000000000000e+00 0.000000000000e+00 0.000000000000e+00 1.000000000000e+00 0.000000000000e+00 0.000000000000e+00 1.000000000000e+00 0.000000000000e+00 0.000000000000e+00 1.000000000000e+00 0.000000000000e+00 0.000000000000e+00 1.000000000000e+00 0.000000000000e+00 0.000000000000e+00 1.000000000000e+00 0.000000000000e+00 0.000000000000e+00 1.000000000000e+00 0.000000000000e+00 0.000000000000e+00 1.000000000000e+00 0.000000000000e+00 0.000000000000e+00 1.000000000000e+00 0.000000000000e+00 0.000000000000e+00 1.000000000000e+00 0.000000000000e+00 0.000000000000e+00 1.000000000000e+00 0.000000000000e+00 0.000000000000e+00 1.000000000000e+00 0.000000000000e+00 0.000000000000e+00 1.000000000000e+00 0.000000000000e+00 0.000000000000e+00 1.000000000000e+00 0.000000000000e+00 0.000000000000e+00 1.000000000000e+00 0.000000000000e+00 0.000000000000e+00 1.000000000000e+00 0.000000000000e+00 0.000000000000e+00 1.000000000000e+00 0.000000000000e+00 0.000000000000e+00 1.000000000000e+00 0.000000000000e+00 0.000000000000e+00 1.000000000000e+00 0.000000000000e+00 0.000000000000e+00 1.000000000000e+00 0.000000000000e+00 0.000000000000e+00 1.000000000000e+00 0.000000000000e+00 0.000000000000e+00 1.000000000000e+00 0.000000000000e+00 0.000000000000e+00 1.000000000000e+00 0.000000000000e+00 0.000000000000e+00 1.000000000000e+00 0.000000000000e+00 0.000000000000e+00 1.000000000000e+00 0.000000000000e+00 0.000000000000e+00 1.000000000000e+00 0.000000000000e+00 0.000000000000e+00 1.000000000000e+00 0.000000000000e+00 0.000000000000e+00 1.000000000000e+00 0.000000000000e+00 0.000000000000e+00 1.000000000000e+00 0.000000000000e+00 0.000000000000e+00 1.000000000000e+00 0.000000000000e+00 0.000000000000e+00 1.000000000000e+00 0.000000000000e+00 0.000000000000e+00 1.000000000000e+00 0.000000000000e+00 0.000000000000e+00 1.000000000000e+00 0.000000000000e+00 0.000000000000e+00 1.000000000000e+00 0.000000000000e+00 0.000000000000e+00 1.000000000000e+00 0.000000000000e+00 0.000000000000e+00 1.000000000000e+00 0.000000000000e+00 0.000000000000e+00 1.000000000000e+00 0.000000000000e+00 0.000000000000e+00 1.000000000000e+00 0.000000000000e+00 0.000000000000e+00 1.000000000000e+00 0.000000000000e+00 0.000000000000e+00 1.000000000000e+00 0.000000000000e+00 0.000000000000e+00 1.000000000000e+00 0.000000000000e+00 0.000000000000e+00 1.000000000000e+00 0.000000000000e+00 0.000000000000e+00 1.000000000000e+00 0.000000000000e+00 0.000000000000e+00 1.000000000000e+00 0.000000000000e+00 0.000000000000e+00 1.000000000000e+00 0.000000000000e+00 0.000000000000e+00 1.000000000000e+00 0.000000000000e+00 0.000000000000e+00 1.000000000000e+00 0.000000000000e+00 0.000000000000e+00 1.000000000000e+00 0.000000000000e+00 0.000000000000e+00 1.000000000000e+00 0.000000000000e+00 0.000000000000e+00 1.000000000000e+00 0.000000000000e+00 0.000000000000e+00 1.000000000000e+00 0.000000000000e+00 0.000000000000e+00 1.000000000000e+00 0.000000000000e+00 0.000000000000e+00 1.000000000000e+00 0.000000000000e+00 0.000000000000e+00 1.000000000000e+00 0.000000000000e+00 0.000000000000e+00 1.000000000000e+00 0.000000000000e+00 0.000000000000e+00 1.000000000000e+00 
        </DataArray>
        <DataArray type="Float64" Name="NORMSTRESS_3" NumberOfComponents="3" format="ascii">
          9.999999829985e-01 1.843987622296e-04 0.000000000000e+00 9.999999919000e-01 1.272788312040e-04 0.000000000000e+00 9.999999934517e-01 1.144402576970e-04 0.000000000000e+00 9.999999938325e-01 1.110629128029e-04 0.000000000000e+00 9.999999939280e-01 1.101994491479e-04 0.000000000000e+00 9.999999939472e-01 1.100252723983e-04 0.000000000000e+00 9.999999939453e-01 1.100429025269e-04 0.000000000000e+00 9.999999939377e-01 1.101121410440e-04 0.000000000000e+00 9.999999939288e-01 1.101924646307e-04 0.000000000000e+00 9.999999939200e-01 1.102720031003e-04 0.000000000000e+00 9.999999939117e-01 1.103474303288e-04 0.000000000000e+00 9.999999939039e-01 1.104181866982e-04 0.000000000000e+00 9.999999938966e-01 1.104841769645e-04 0.000000000000e+00 9.999999938898e-01 1.105457733828e-04 0.000000000000e+00 9.999999938835e-01 1.106031567715e-04 0.000000000000e+00 9.999999938775e-01 1.106569407193e-04 0.000000000000e+00 9.999999938720e-01 1.107066589305e-04 0.000000000000e+00 9.999999938669e-01 1.107528342640e-04 0.000000000000e+00 9.999999938623e-01 1.107940243607e-04 0.000000000000e+00 9.999999938585e-01 1.108285064380e-04 0.000000000000e+00 9.999999938561e-01 1.108499971914e-04 0.000000000000e+00 9.999999938566e-01 1.108460459365e-04 0.000000000000e+00 9.999999938631e-01 1.107867951021e-04 0.000000000000e+00 9.999999938830e-01 1.106077313706e-04 0.000000000000e+00 9.999999939314e-01 1.101688379536e-04 0.000000000000e+00 9.999999940408e-01 1.091713907585e-04 0.000000000000e+00 9.999999942769e-01 1.069872118042e-04 0.000000000000e+00 9.999999947659e-01 1.023143690530e-04 0.000000000000e+00 9.999999957231e-01 9.248632970597e-05 0.000000000000e+00 9.999999973997e-01 7.211507127689e-05 0.000000000000e+00 9.999999995569e-01 2.976840691917e-05 0.000000000000e+00 9.951847265267e-01 9.801714180699e-02 0.000000000000e+00 9.951847261386e-01 9.801714574706e-02 0.000000000000e+00 9.951847258095e-01 9.801714908842e-02 0.000000000000e+00 9.951847255041e-01 9.801715218919e-02 0.000000000000e+00 9.951847252238e-01 9.801715503531e-02 0.000000000000e+00 9.951847249990e-01 9.801715731753e-02 0.000000000000e+00 9.951847247794e-01 9.801715954738e-02 0.000000000000e+00 9.951847245950e-01 9.801716141973e-02 0.000000000000e+00 9.951847244442e-01 9.801716295111e-02 0.000000000000e+00 9.951847243075e-01 9.801716433835e-02 0.000000000000e+00 9.951847241918e-01 9.801716551351e-02 0.000000000000e+00 9.951847241070e-01 9.801716637463e-02 0.000000000000e+00 9.951847240248e-01 9.801716720853e-02 0.000000000000e+00 9.951847239897e-01 9.801716756533e-02 0.000000000000e+00 9.951847239300e-01 9.801716817118e-02 0.000000000000e+00 9.951847239476e-01 9.801716799238e-02 0.000000000000e+00 9.951847239248e-01 9.801716822474e-02 0.000000000000e+00 9.951847239841e-01 9.801716762215e-02 0.000000000000e+00 9.951847240079e-01 9.801716738031e-02 0.000000000000e+00 9.951847241285e-01 9.801716615620e-02 0.000000000000e+00 9.951847241830e-01 9.801716560299e-02 0.000000000000e+00 9.951847243401e-01 9.801716400729e-02 0.000000000000e+00 9.951847244569e-01 9.801716282194e-02 0.000000000000e+00 9.951847246225e-01 9.801716114013e-02 0.000000000000e+00 9.951847248019e-01 9.801715931913e-02 0.000000000000e+00 9.951847250428e-01 9.801715687264e-02 0.000000000000e+00 9.951847252526e-01 9.801715474251e-02 0.000000000000e+00 9.951847255750e-01 9.801715146912e-02 0.000000000000e+00 9.951847258176e-01 9.801714900602e-02 0.000000000000e+00 9.951847261861e-01 9.801714526510e-02 0.000000000000e+00 9.951847265206e-01 9.801714186893e-02 0.000000000000e+00 9.807852798193e-01 1.950903249517e-01 0.000000000000e+00 9.807852783416e-01 1.950903323806e-01 0.000000000000e+00 9.807852770328e-01 1.950903389604e-01 0.000000000000e+00 9.807852758539e-01 1.950903448872e-01 0.000000000000e+00 9.807852748197e-01 1.950903500866e-01 0.000000000000e+00 9.807852738923e-01 1.950903547490e-01 0.000000000000e+00 9.807852730966e-01 1.950903587488e-01 0.000000000000e+00 9.807852723705e-01 1.950903623994e-01 0.000000000000e+00 9.807852717593e-01 1.950903654721e-01 0.000000000000e+00 9.807852712491e-01 1.950903680371e-01 0.000000000000e+00 9.807852707854e-01 1.950903703684e-01 0.000000000000e+00 9.807852704239e-01 1.950903721858e-01 0.000000000000e+00 9.807852701729e-01 1.950903734476e-01 0.000000000000e+00 9.807852699134e-01 1.950903747523e-01 0.000000000000e+00 9.807852698392e-01 1.950903751249e-01 0.000000000000e+00 9.807852697318e-01 1.950903756648e-01 0.000000000000e+00 9.807852698103e-01 1.950903752702e-01 0.000000000000e+00 9.807852698603e-01 1.950903750190e-01 0.000000000000e+00 9.807852701492e-01 1.950903735666e-01 0.000000000000e+00 9.807852703471e-01 1.950903725718e-01 0.000000000000e+00 9.807852707996e-01 1.950903702969e-01 0.000000000000e+00 9.807852712197e-01 1.950903681848e-01 0.000000000000e+00 9.807852717416e-01 1.950903655609e-01 0.000000000000e+00 9.807852723779e-01 1.950903623624e-01 0.000000000000e+00 9.807852731012e-01 1.950903587261e-01 0.000000000000e+00 9.807852739223e-01 1.950903545980e-01 0.000000000000e+00 9.807852748883e-01 1.950903497417e-01 0.000000000000e+00 9.807852759138e-01 1.950903445860e-01 0.000000000000e+00 9.807852771238e-01 1.950903385031e-01 0.000000000000e+00 9.807852782941e-01 1.950903326193e-01 0.000000000000e+00 9.807852798498e-01 1.950903247984e-01 0.000000000000e+00 9.569403344412e-01 2.902846815103e-01 0.000000000000e+00 9.569403312924e-01 2.902846918907e-01 0.000000000000e+00 9.569403285095e-01 2.902847010645e-01 0.000000000000e+00 9.569403260548e-01 2.902847091567e-01 0.000000000000e+00 9.569403238543e-01 2.902847164108e-01 0.000000000000e+00 9.569403219223e-01 2.902847227795e-01 0.000000000000e+00 9.569403201859e-01 2.902847285038e-01 0.000000000000e+00 9.569403186981e-01 2.902847334083e-01 0.000000000000e+00 9.569403174087e-01 2.902847376590e-01 0.000000000000e+00 9.569403162415e-01 2.902847415067e-01 0.000000000000e+00 9.569403153142e-01 2.902847445636e-01 0.000000000000e+00 9.569403145536e-01 2.902847470709e-01 0.000000000000e+00 9.569403139204e-01 2.902847491584e-01 0.000000000000e+00 9.569403134863e-01 2.902847505894e-01 0.000000000000e+00 9.569403132027e-01 2.902847515242e-01 0.000000000000e+00 9.569403131206e-01 2.902847517951e-01 0.000000000000e+00 9.569403131056e-01 2.902847518444e-01 0.000000000000e+00 9.569403133861e-01 2.902847509197e-01 0.000000000000e+00 9.569403137577e-01 2.902847496946e-01 0.000000000000e+00 9.569403143667e-01 2.902847476871e-01 0.000000000000e+00 9.569403151273e-01 2.902847451798e-01 0.000000000000e+00 9.569403160583e-01 2.902847421106e-01 0.000000000000e+00 9.569403172408e-01 2.902847382123e-01 0.000000000000e+00 9.569403185009e-01 2.902847340584e-01 0.000000000000e+00 9.569403201182e-01 2.902847287271e-01 0.000000000000e+00 9.569403218201e-01 2.902847231165e-01 0.000000000000e+00 9.569403238792e-01 2.902847163287e-01 0.000000000000e+00 9.569403260827e-01 2.902847090646e-01 0.000000000000e+00 9.569403285272e-01 2.902847010061e-01 0.000000000000e+00 9.569403312584e-01 2.902846920027e-01 0.000000000000e+00 9.569403344360e-01 2.902846815275e-01 0.000000000000e+00 9.238795302344e-01 3.826834378619e-01 0.000000000000e+00 9.238795251416e-01 3.826834501570e-01 0.000000000000e+00 9.238795206419e-01 3.826834610202e-01 0.000000000000e+00 9.238795166527e-01 3.826834706511e-01 0.000000000000e+00 9.238795130515e-01 3.826834793453e-01 0.000000000000e+00 9.238795099357e-01 3.826834868673e-01 0.000000000000e+00 9.238795071806e-01 3.826834935189e-01 0.000000000000e+00 9.238795046774e-01 3.826834995621e-01 0.000000000000e+00 9.238795025606e-01 3.826835046724e-01 0.000000000000e+00 9.238795007499e-01 3.826835090439e-01 0.000000000000e+00 9.238794991332e-01 3.826835129469e-01 0.000000000000e+00 9.238794979238e-01 3.826835158667e-01 0.000000000000e+00 9.238794968742e-01 3.826835184006e-01 0.000000000000e+00 9.238794961644e-01 3.826835201142e-01 0.000000000000e+00 9.238794956884e-01 3.826835212635e-01 0.000000000000e+00 9.238794954828e-01 3.826835217597e-01 0.000000000000e+00 9.238794955147e-01 3.826835216828e-01 0.000000000000e+00 9.238794959516e-01 3.826835206279e-01 0.000000000000e+00 9.238794964549e-01 3.826835194129e-01 0.000000000000e+00 9.238794974665e-01 3.826835169708e-01 0.000000000000e+00 9.238794986111e-01 3.826835142075e-01 0.000000000000e+00 9.238795002258e-01 3.826835103092e-01 0.000000000000e+00 9.238795019550e-01 3.826835061346e-01 0.000000000000e+00 9.238795042617e-01 3.826835005655e-01 0.000000000000e+00 9.238795066974e-01 3.826834946852e-01 0.000000000000e+00 9.238795096176e-01 3.826834876353e-01 0.000000000000e+00 9.238795128400e-01 3.826834798558e-01 0.000000000000e+00 9.238795164647e-01 3.826834711049e-01 0.000000000000e+00 9.238795204811e-01 3.826834614085e-01 0.000000000000e+00 9.238795249332e-01 3.826834506601e-01 0.000000000000e+00 9.238795302633e-01 3.826834377921e-01 0.000000000000e+00 8.819212608598e-01 4.713967433526e-01 0.000000000000e+00 8.819212538425e-01 4.713967564811e-01 0.000000000000e+00 8.819212476631e-01 4.713967680419e-01 0.000000000000e+00 8.819212421202e-01 4.713967784119e-01 0.000000000000e+00 8.819212372612e-01 4.713967875024e-01 0.000000000000e+00 8.819212329352e-01 4.713967955959e-01 0.000000000000e+00 8.819212290752e-01 4.713968028175e-01 0.000000000000e+00 8.819212257008e-01 4.713968091304e-01 0.000000000000e+00 8.819212227578e-01 4.713968146365e-01 0.000000000000e+00 8.819212201699e-01 4.713968194781e-01 0.000000000000e+00 8.819212180528e-01 4.713968234388e-01 0.000000000000e+00 8.819212162449e-01 4.713968268213e-01 0.000000000000e+00 8.819212149070e-01 4.713968293243e-01 0.000000000000e+00 8.819212137739e-01 4.713968314442e-01 0.000000000000e+00 8.819212131996e-01 4.713968325185e-01 0.000000000000e+00 8.819212127955e-01 4.713968332746e-01 0.000000000000e+00 8.819212129606e-01 4.713968329658e-01 0.000000000000e+00 8.819212132234e-01 4.713968324741e-01 0.000000000000e+00 8.819212142919e-01 4.713968304749e-01 0.000000000000e+00 8.819212152627e-01 4.713968286587e-01 0.000000000000e+00 8.819212171168e-01 4.713968251900e-01 0.000000000000e+00 8.819212190937e-01 4.713968214916e-01 0.000000000000e+00 8.819212217379e-01 4.713968165445e-01 0.000000000000e+00 8.819212247035e-01 4.713968109963e-01 0.000000000000e+00 8.819212282293e-01 4.713968044001e-01 0.000000000000e+00 8.819212322809e-01 4.713967968200e-01 0.000000000000e+00 8.819212366004e-01 4.713967887388e-01 0.000000000000e+00 8.819212417399e-01 4.713967791234e-01 0.000000000000e+00 8.819212472685e-01 4.713967687801e-01 0.000000000000e+00 8.819212533744e-01 4.713967573568e-01 0.000000000000e+00 8.819212609034e-01 4.713967432711e-01 0.000000000000e+00 8.314696073647e-01 5.555702404096e-01 0.000000000000e+00 8.314695988829e-01 5.555702531035e-01 0.000000000000e+00 8.314695913184e-01 5.555702644246e-01 0.000000000000e+00 8.314695846180e-01 5.555702744525e-01 0.000000000000e+00 8.314695786404e-01 5.555702833986e-01 0.000000000000e+00 8.314695733797e-01 5.555702912717e-01 0.000000000000e+00 8.314695686148e-01 5.555702984030e-01 0.000000000000e+00 8.314695645177e-01 5.555703045347e-01 0.000000000000e+00 8.314695609323e-01 5.555703099006e-01 0.000000000000e+00 8.314695577262e-01 5.555703146989e-01 0.000000000000e+00 8.314695551479e-01 5.555703185576e-01 0.000000000000e+00 8.314695530065e-01 5.555703217623e-01 0.000000000000e+00 8.314695511517e-01 5.555703245382e-01 0.000000000000e+00 8.314695500519e-01 5.555703261843e-01 0.000000000000e+00 8.314695490074e-01 5.555703277475e-01 0.000000000000e+00 8.314695486913e-01 5.555703282205e-01 0.000000000000e+00 8.314695486894e-01 5.555703282234e-01 0.000000000000e+00 8.314695492487e-01 5.555703273864e-01 0.000000000000e+00 8.314695500411e-01 5.555703262004e-01 0.000000000000e+00 8.314695518967e-01 5.555703234233e-01 0.000000000000e+00 8.314695535569e-01 5.555703209387e-01 0.000000000000e+00 8.314695563723e-01 5.555703167251e-01 0.000000000000e+00 8.314695595340e-01 5.555703119933e-01 0.000000000000e+00 8.314695631090e-01 5.555703066430e-01 0.000000000000e+00 8.314695676283e-01 5.555702998793e-01 0.000000000000e+00 8.314695722676e-01 5.555702929361e-01 0.000000000000e+00 8.314695779440e-01 5.555702844408e-01 0.000000000000e+00 8.314695839260e-01 5.555702754881e-01 0.000000000000e+00 8.314695907567e-01 5.555702652653e-01 0.000000000000e+00 8.314695982744e-01 5.555702540142e-01 0.000000000000e+00 8.314696074132e-01 5.555702403370e-01 0.000000000000e+00 7.730104468271e-01 6.343932921273e-01 0.000000000000e+00 7.730104375220e-01 6.343933034657e-01 0.000000000000e+00 7.730104293110e-01 6.343933134708e-01 0.000000000000e+00 7.730104218870e-01 6.343933225170e-01 0.000000000000e+00 7.730104153314e-01 6.343933305049e-01 0.000000000000e+00 7.730104094193e-01 6.343933377089e-01 0.000000000000e+00 7.730104042718e-01 6.343933439811e-01 0.000000000000e+00 7.730103996848e-01 6.343933495704e-01 0.000000000000e+00 7.730103956319e-01 6.343933545089e-01 0.000000000000e+00 7.730103922992e-01 6.343933585698e-01 0.000000000000e+00 7.730103893300e-01 6.343933621877e-01 0.000000000000e+00 7.730103868927e-01 6.343933651576e-01 0.000000000000e+00 7.730103850578e-01 6.343933673934e-01 0.000000000000e+00 7.730103835242e-01 6.343933692621e-01 0.000000000000e+00 7.730103826050e-01 6.343933703822e-01 0.000000000000e+00 7.730103820502e-01 6.343933710582e-01 0.000000000000e+00 7.730103821423e-01 6.343933709460e-01 0.000000000000e+00 7.730103826905e-01 6.343933702780e-01 0.000000000000e+00 7.730103837660e-01 6.343933689675e-01 0.000000000000e+00 7.730103854351e-01 6.343933669337e-01 0.000000000000e+00 7.730103878991e-01 6.343933639313e-01 0.000000000000e+00 7.730103904894e-01 6.343933607750e-01 0.000000000000e+00 7.730103941872e-01 6.343933562692e-01 0.000000000000e+00 7.730103984852e-01 6.343933510321e-01 0.000000000000e+00 7.730104028506e-01 6.343933457129e-01 0.000000000000e+00 7.730104085298e-01 6.343933387927e-01 0.000000000000e+00 7.730104146387e-01 6.343933313490e-01 0.000000000000e+00 7.730104211322e-01 6.343933234367e-01 0.000000000000e+00 7.730104286968e-01 6.343933142192e-01 0.000000000000e+00 7.730104370788e-01 6.343933040057e-01 0.000000000000e+00 7.730104468453e-01 6.343932921052e-01 0.000000000000e+00 7.071067706498e-01 7.071067917233e-01 0.000000000000e+00 7.071067637134e-01 7.071067986597e-01 0.000000000000e+00 7.071067553770e-01 7.071068069961e-01 0.000000000000e+00 7.071067478665e-01 7.071068145066e-01 0.000000000000e+00 7.071067414113e-01 7.071068209618e-01 0.000000000000e+00 7.071067355612e-01 7.071068268118e-01 0.000000000000e+00 7.071067303804e-01 7.071068319927e-01 0.000000000000e+00 7.071067256810e-01 7.071068366921e-01 0.000000000000e+00 7.071067215819e-01 7.071068407912e-01 0.000000000000e+00 7.071067181862e-01 7.071068441869e-01 0.000000000000e+00 7.071067153848e-01 7.071068469883e-01 0.000000000000e+00 7.071067126979e-01 7.071068496752e-01 0.000000000000e+00 7.071067105041e-01 7.071068518690e-01 0.000000000000e+00 7.071067093357e-01 7.071068530373e-01 0.000000000000e+00 7.071067085673e-01 7.071068538058e-01 0.000000000000e+00 7.071067079962e-01 7.071068543769e-01 0.000000000000e+00 7.071067081861e-01 7.071068541870e-01 0.000000000000e+00 7.071067085673e-01 7.071068538058e-01 0.000000000000e+00 7.071067097231e-01 7.071068526500e-01 0.000000000000e+00 7.071067114927e-01 7.071068508803e-01 0.000000000000e+00 7.071067141313e-01 7.071068482418e-01 0.000000000000e+00 7.071067168781e-01 7.071068454950e-01 0.000000000000e+00 7.071067204289e-01 7.071068419442e-01 0.000000000000e+00 7.071067244446e-01 7.071068379285e-01 0.000000000000e+00 7.071067292993e-01 7.071068330738e-01 0.000000000000e+00 7.071067352581e-01 7.071068271150e-01 0.000000000000e+00 7.071067407195e-01 7.071068216536e-01 0.000000000000e+00 7.071067478665e-01 7.071068145066e-01 0.000000000000e+00 7.071067559204e-01 7.071068064527e-01 0.000000000000e+00 7.071067637134e-01 7.071067986597e-01 0.000000000000e+00 7.071067737360e-01 7.071067886371e-01 0.000000000000e+00 6.343932739985e-01 7.730104617051e-01 0.000000000000e+00 6.343932658687e-01 7.730104683770e-01 0.000000000000e+00 6.343932583757e-01 7.730104745263e-01 0.000000000000e+00 6.343932516302e-01 7.730104800622e-01 0.000000000000e+00 6.343932456913e-01 7.730104849362e-01 0.000000000000e+00 6.343932401525e-01 7.730104894818e-01 0.000000000000e+00 6.343932352498e-01 7.730104935053e-01 0.000000000000e+00 6.343932310828e-01 7.730104969251e-01 0.000000000000e+00 6.343932273060e-01 7.730105000246e-01 0.000000000000e+00 6.343932241664e-01 7.730105026012e-01 0.000000000000e+00 6.343932213367e-01 7.730105049235e-01 0.000000000000e+00 6.343932191630e-01 7.730105067074e-01 0.000000000000e+00 6.343932175281e-01 7.730105080491e-01 0.000000000000e+00 6.343932160106e-01 7.730105092945e-01 0.000000000000e+00 6.343932151497e-01 7.730105100010e-01 0.000000000000e+00 6.343932151799e-01 7.730105099763e-01 0.000000000000e+00 6.343932148559e-01 7.730105102422e-01 0.000000000000e+00 6.343932157030e-01 7.730105095470e-01 0.000000000000e+00 6.343932168795e-01 7.730105085814e-01 0.000000000000e+00 6.343932186523e-01 7.730105071265e-01 0.000000000000e+00 6.343932205831e-01 7.730105055419e-01 0.000000000000e+00 6.343932236577e-01 7.730105030187e-01 0.000000000000e+00 6.343932267465e-01 7.730105004837e-01 0.000000000000e+00 6.343932308559e-01 7.730104971112e-01 0.000000000000e+00 6.343932348870e-01 7.730104938030e-01 0.000000000000e+00 6.343932400664e-01 7.730104895524e-01 0.000000000000e+00 6.343932457105e-01 7.730104849204e-01 0.000000000000e+00 6.343932515179e-01 7.730104801544e-01 0.000000000000e+00 6.343932582029e-01 7.730104746682e-01 0.000000000000e+00 6.343932657695e-01 7.730104684584e-01 0.000000000000e+00 6.343932739543e-01 7.730104617413e-01 0.000000000000e+00 5.555702209319e-01 8.314696203793e-01 0.000000000000e+00 5.555702143613e-01 8.314696247696e-01 0.000000000000e+00 5.555702084336e-01 8.314696287304e-01 0.000000000000e+00 5.555702027829e-01 8.314696325060e-01 0.000000000000e+00 5.555701978617e-01 8.314696357943e-01 0.000000000000e+00 5.555701933691e-01 8.314696387962e-01 0.000000000000e+00 5.555701892532e-01 8.314696415463e-01 0.000000000000e+00 5.555701856190e-01 8.314696439746e-01 0.000000000000e+00 5.555701824985e-01 8.314696460597e-01 0.000000000000e+00 5.555701798295e-01 8.314696478431e-01 0.000000000000e+00 5.555701775273e-01 8.314696493813e-01 0.000000000000e+00 5.555701755623e-01 8.314696506943e-01 0.000000000000e+00 5.555701742145e-01 8.314696515949e-01 0.000000000000e+00 5.555701732758e-01 8.314696522221e-01 0.000000000000e+00 5.555701725005e-01 8.314696527401e-01 0.000000000000e+00 5.555701724596e-01 8.314696527674e-01 0.000000000000e+00 5.555701727386e-01 8.314696525810e-01 0.000000000000e+00 5.555701733008e-01 8.314696522054e-01 0.000000000000e+00 5.555701744100e-01 8.314696514642e-01 0.000000000000e+00 5.555701758123e-01 8.314696505273e-01 0.000000000000e+00 5.555701777267e-01 8.314696492481e-01 0.000000000000e+00 5.555701801812e-01 8.314696476081e-01 0.000000000000e+00 5.555701827026e-01 8.314696459233e-01 0.000000000000e+00 5.555701858839e-01 8.314696437976e-01 0.000000000000e+00 5.555701899046e-01 8.314696411110e-01 0.000000000000e+00 5.555701934100e-01 8.314696387689e-01 0.000000000000e+00 5.555701981640e-01 8.314696355923e-01 0.000000000000e+00 5.555702032792e-01 8.314696321744e-01 0.000000000000e+00 5.555702086273e-01 8.314696286009e-01 0.000000000000e+00 5.555702140599e-01 8.314696249710e-01 0.000000000000e+00 5.555702211227e-01 8.314696202518e-01 0.000000000000e+00 4.713967227401e-01 8.819212718774e-01 0.000000000000e+00 4.713967183320e-01 8.819212742336e-01 0.000000000000e+00 4.713967139542e-01 8.819212765736e-01 0.000000000000e+00 4.713967101013e-01 8.819212786330e-01 0.000000000000e+00 4.713967065916e-01 8.819212805090e-01 0.000000000000e+00 4.713967032015e-01 8.819212823210e-01 0.000000000000e+00 4.713967000776e-01 8.819212839908e-01 0.000000000000e+00 4.713966976562e-01 8.819212852851e-01 0.000000000000e+00 4.713966951946e-01 8.819212866008e-01 0.000000000000e+00 4.713966928617e-01 8.819212878478e-01 0.000000000000e+00 4.713966914667e-01 8.819212885934e-01 0.000000000000e+00 4.713966899377e-01 8.819212894107e-01 0.000000000000e+00 4.713966888308e-01 8.819212900023e-01 0.000000000000e+00 4.713966881364e-01 8.819212903735e-01 0.000000000000e+00 4.713966879228e-01 8.819212904877e-01 0.000000000000e+00 4.713966877821e-01 8.819212905629e-01 0.000000000000e+00 4.713966882089e-01 8.819212903348e-01 0.000000000000e+00 4.713966885983e-01 8.819212901266e-01 0.000000000000e+00 4.713966898824e-01 8.819212894402e-01 0.000000000000e+00 4.713966905759e-01 8.819212890695e-01 0.000000000000e+00 4.713966922528e-01 8.819212881732e-01 0.000000000000e+00 4.713966938568e-01 8.819212873159e-01 0.000000000000e+00 4.713966959192e-01 8.819212862135e-01 0.000000000000e+00 4.713966980893e-01 8.819212850535e-01 0.000000000000e+00 4.713967009366e-01 8.819212835317e-01 0.000000000000e+00 4.713967035295e-01 8.819212821457e-01 0.000000000000e+00 4.713967070564e-01 8.819212802606e-01 0.000000000000e+00 4.713967103270e-01 8.819212785124e-01 0.000000000000e+00 4.713967143117e-01 8.819212763825e-01 0.000000000000e+00 4.713967184132e-01 8.819212741902e-01 0.000000000000e+00 4.713967228204e-01 8.819212718345e-01 0.000000000000e+00 3.826834163353e-01 9.238795391511e-01 0.000000000000e+00 3.826834139455e-01 9.238795401409e-01 0.000000000000e+00 3.826834117367e-01 9.238795410559e-01 0.000000000000e+00 3.826834095049e-01 9.238795419803e-01 0.000000000000e+00 3.826834074518e-01 9.238795428307e-01 0.000000000000e+00 3.826834054635e-01 9.238795436543e-01 0.000000000000e+00 3.826834036976e-01 9.238795443858e-01 0.000000000000e+00 3.826834020291e-01 9.238795450769e-01 0.000000000000e+00 3.826834003158e-01 9.238795457866e-01 0.000000000000e+00 3.826833991182e-01 9.238795462826e-01 0.000000000000e+00 3.826833978999e-01 9.238795467872e-01 0.000000000000e+00 3.826833970183e-01 9.238795471524e-01 0.000000000000e+00 3.826833962775e-01 9.238795474592e-01 0.000000000000e+00 3.826833959961e-01 9.238795475758e-01 0.000000000000e+00 3.826833958203e-01 9.238795476486e-01 0.000000000000e+00 3.826833958694e-01 9.238795476283e-01 0.000000000000e+00 3.826833960920e-01 9.238795475361e-01 0.000000000000e+00 3.826833968641e-01 9.238795472163e-01 0.000000000000e+00 3.826833972468e-01 9.238795470578e-01 0.000000000000e+00 3.826833980302e-01 9.238795467333e-01 0.000000000000e+00 3.826833991548e-01 9.238795462674e-01 0.000000000000e+00 3.826833998850e-01 9.238795459650e-01 0.000000000000e+00 3.826834012437e-01 9.238795454022e-01 0.000000000000e+00 3.826834025132e-01 9.238795448763e-01 0.000000000000e+00 3.826834039921e-01 9.238795442638e-01 0.000000000000e+00 3.826834057789e-01 9.238795435237e-01 0.000000000000e+00 3.826834074647e-01 9.238795428254e-01 0.000000000000e+00 3.826834096881e-01 9.238795419044e-01 0.000000000000e+00 3.826834116293e-01 9.238795411004e-01 0.000000000000e+00 3.826834144433e-01 9.238795399347e-01 0.000000000000e+00 3.826834162666e-01 9.238795391795e-01 0.000000000000e+00 2.902846592165e-01 9.569403412040e-01 0.000000000000e+00 2.902846591307e-01 9.569403412300e-01 0.000000000000e+00 2.902846586687e-01 9.569403413701e-01 0.000000000000e+00 2.902846583236e-01 9.569403414748e-01 0.000000000000e+00 2.902846576984e-01 9.569403416645e-01 0.000000000000e+00 2.902846570155e-01 9.569403418716e-01 0.000000000000e+00 2.902846563705e-01 9.569403420673e-01 0.000000000000e+00 2.902846554925e-01 9.569403423336e-01 0.000000000000e+00 2.902846548244e-01 9.569403425363e-01 0.000000000000e+00 2.902846540224e-01 9.569403427796e-01 0.000000000000e+00 2.902846534069e-01 9.569403429663e-01 0.000000000000e+00 2.902846529621e-01 9.569403431012e-01 0.000000000000e+00 2.902846525573e-01 9.569403432240e-01 0.000000000000e+00 2.902846524097e-01 9.569403432688e-01 0.000000000000e+00 2.902846524077e-01 9.569403432694e-01 0.000000000000e+00 2.902846525292e-01 9.569403432325e-01 0.000000000000e+00 2.902846526107e-01 9.569403432078e-01 0.000000000000e+00 2.902846532039e-01 9.569403430279e-01 0.000000000000e+00 2.902846534835e-01 9.569403429431e-01 0.000000000000e+00 2.902846539103e-01 9.569403428136e-01 0.000000000000e+00 2.902846543468e-01 9.569403426812e-01 0.000000000000e+00 2.902846550320e-01 9.569403424733e-01 0.000000000000e+00 2.902846548836e-01 9.569403425183e-01 0.000000000000e+00 2.902846558576e-01 9.569403422229e-01 0.000000000000e+00 2.902846559607e-01 9.569403421916e-01 0.000000000000e+00 2.902846566549e-01 9.569403419810e-01 0.000000000000e+00 2.902846569924e-01 9.569403418786e-01 0.000000000000e+00 2.902846577656e-01 9.569403416441e-01 0.000000000000e+00 2.902846585192e-01 9.569403414155e-01 0.000000000000e+00 2.902846588317e-01 9.569403413207e-01 0.000000000000e+00 2.902846594100e-01 9.569403411453e-01 0.000000000000e+00 1.950903021083e-01 9.807852843631e-01 0.000000000000e+00 1.950903041033e-01 9.807852839663e-01 0.000000000000e+00 1.950903058547e-01 9.807852836179e-01 0.000000000000e+00 1.950903069804e-01 9.807852833940e-01 0.000000000000e+00 1.950903076361e-01 9.807852832636e-01 0.000000000000e+00 1.950903080913e-01 9.807852831731e-01 0.000000000000e+00 1.950903080145e-01 9.807852831883e-01 0.000000000000e+00 1.950903078327e-01 9.807852832245e-01 0.000000000000e+00 1.950903076214e-01 9.807852832665e-01 0.000000000000e+00 1.950903073012e-01 9.807852833302e-01 0.000000000000e+00 1.950903069537e-01 9.807852833993e-01 0.000000000000e+00 1.950903067735e-01 9.807852834352e-01 0.000000000000e+00 1.950903067625e-01 9.807852834374e-01 0.000000000000e+00 1.950903064962e-01 9.807852834903e-01 0.000000000000e+00 1.950903067399e-01 9.807852834419e-01 0.000000000000e+00 1.950903067804e-01 9.807852834338e-01 0.000000000000e+00 1.950903070500e-01 9.807852833802e-01 0.000000000000e+00 1.950903073154e-01 9.807852833274e-01 0.000000000000e+00 1.950903075199e-01 9.807852832867e-01 0.000000000000e+00 1.950903081351e-01 9.807852831643e-01 0.000000000000e+00 1.950903079313e-01 9.807852832049e-01 0.000000000000e+00 1.950903083190e-01 9.807852831278e-01 0.000000000000e+00 1.950903080354e-01 9.807852831842e-01 0.000000000000e+00 1.950903078237e-01 9.807852832263e-01 0.000000000000e+00 1.950903075313e-01 9.807852832844e-01 0.000000000000e+00 1.950903067481e-01 9.807852834402e-01 0.000000000000e+00 1.950903064950e-01 9.807852834906e-01 0.000000000000e+00 1.950903054237e-01 9.807852837037e-01 0.000000000000e+00 1.950903048162e-01 9.807852838245e-01 0.000000000000e+00 1.950903036618e-01 9.807852840541e-01 0.000000000000e+00 1.950903022001e-01 9.807852843449e-01 0.000000000000e+00 9.801711802997e-02 9.951847288685e-01 0.000000000000e+00 9.801712451749e-02 9.951847282295e-01 0.000000000000e+00 9.801712860879e-02 9.951847278266e-01 0.000000000000e+00 9.801713048169e-02 9.951847276421e-01 0.000000000000e+00 9.801713127693e-02 9.951847275638e-01 0.000000000000e+00 9.801713145581e-02 9.951847275462e-01 0.000000000000e+00 9.801713149781e-02 9.951847275420e-01 0.000000000000e+00 9.801713139715e-02 9.951847275520e-01 0.000000000000e+00 9.801713126376e-02 9.951847275651e-01 0.000000000000e+00 9.801713115539e-02 9.951847275758e-01 0.000000000000e+00 9.801713102115e-02 9.951847275890e-01 0.000000000000e+00 9.801713110811e-02 9.951847275804e-01 0.000000000000e+00 9.801713105393e-02 9.951847275858e-01 0.000000000000e+00 9.801713115925e-02 9.951847275754e-01 0.000000000000e+00 9.801713134010e-02 9.951847275576e-01 0.000000000000e+00 9.801713166318e-02 9.951847275258e-01 0.000000000000e+00 9.801713179308e-02 9.951847275130e-01 0.000000000000e+00 9.801713213727e-02 9.951847274791e-01 0.000000000000e+00 9.801713291811e-02 9.951847274022e-01 0.000000000000e+00 9.801713260780e-02 9.951847274327e-01 0.000000000000e+00 9.801713363703e-02 9.951847273314e-01 0.000000000000e+00 9.801713340430e-02 9.951847273543e-01 0.000000000000e+00 9.801713388118e-02 9.951847273073e-01 0.000000000000e+00 9.801713341487e-02 9.951847273532e-01 0.000000000000e+00 9.801713351186e-02 9.951847273437e-01 0.000000000000e+00 9.801713282733e-02 9.951847274111e-01 0.000000000000e+00 9.801713136049e-02 9.951847275556e-01 0.000000000000e+00 9.801712989561e-02 9.951847276999e-01 0.000000000000e+00 9.801712646489e-02 9.951847280377e-01 0.000000000000e+00 9.801712247552e-02 9.951847284307e-01 0.000000000000e+00 9.801711868127e-02 9.951847288044e-01 0.000000000000e+00 1.843873195330e-04 9.999999830007e-01 0.000000000000e+00 1.272717167270e-04 9.999999919010e-01 0.000000000000e+00 1.144330138607e-04 9.999999934525e-01 0.000000000000e+00 1.110555462415e-04 9.999999938333e-01 0.000000000000e+00 1.101919905789e-04 9.999999939289e-01 0.000000000000e+00 1.100178720112e-04 9.999999939480e-01 0.000000000000e+00 1.100356805110e-04 9.999999939461e-01 0.000000000000e+00 1.101050080782e-04 9.999999939384e-01 0.000000000000e+00 1.101855136186e-04 9.999999939296e-01 0.000000000000e+00 1.102653187271e-04 9.999999939208e-01 0.000000000000e+00 1.103408958004e-04 9.999999939124e-01 0.000000000000e+00 1.104118398990e-04 9.999999939046e-01 0.000000000000e+00 1.104782771832e-04 9.999999938973e-01 0.000000000000e+00 1.105399606562e-04 9.999999938905e-01 0.000000000000e+00 1.105978041246e-04 9.999999938841e-01 0.000000000000e+00 1.106517753165e-04 9.999999938781e-01 0.000000000000e+00 1.107019092337e-04 9.999999938725e-01 0.000000000000e+00 1.107482921393e-04 9.999999938674e-01 0.000000000000e+00 1.107897588895e-04 9.999999938628e-01 0.000000000000e+00 1.108245380541e-04 9.999999938590e-01 0.000000000000e+00 1.108462346178e-04 9.999999938566e-01 0.000000000000e+00 1.108427820841e-04 9.999999938569e-01 0.000000000000e+00 1.107837949246e-04 9.999999938635e-01 0.000000000000e+00 1.106055296663e-04 9.999999938832e-01 0.000000000000e+00 1.101669866851e-04 9.999999939316e-01 0.000000000000e+00 1.091700561629e-04 9.999999940409e-01 0.000000000000e+00 1.069867103881e-04 9.999999942769e-01 0.000000000000e+00 1.023138182073e-04 9.999999947659e-01 0.000000000000e+00 9.248632475422e-05 9.999999957231e-01 0.000000000000e+00 7.211408866802e-05 9.999999973998e-01 0.000000000000e+00 2.976340326990e-05 9.999999995571e-01 0.000000000000e+00 
        </DataArray>
      </PointData>
      <CellData>
        <DataArray type="Int32" Name="MatGroup" format="ascii">
          0 0 0 0 0 0 0 0 0 0 0 0 0 0 0 0 0 0 0 0 0 0 0 0 0 0 0 0 0 0 0 0 0 0 0 0 0 0 0 0 0 0 0 0 0 0 0 0 0 0 0 0 0 0 0 0 0 0 0 0 0 0 0 0 0 0 0 0 0 0 0 0 0 0 0 0 0 0 0 0 0 0 0 0 0 0 0 0 0 0 0 0 0 0 0 0 0 0 0 0 0 0 0 0 0 0 0 0 0 0 0 0 0 0 0 0 0 0 0 0 0 0 0 0 0 0 0 0 0 0 0 0 0 0 0 0 0 0 0 0 0 0 0 0 0 0 0 0 0 0 0 0 0 0 0 0 0 0 0 0 0 0 0 0 0 0 0 0 0 0 0 0 0 0 0 0 0 0 0 0 0 0 0 0 0 0 0 0 0 0 0 0 0 0 0 0 0 0 0 0 0 0 0 0 0 0 0 0 0 0 0 0 0 0 0 0 0 0 0 0 0 0 0 0 0 0 0 0 0 0 0 0 0 0 0 0 0 0 0 0 0 0 0 0 0 0 0 0 0 0 0 0 0 0 0 0 0 0 0 0 0 0 0 0 0 0 0 0 0 0 0 0 0 0 0 0 0 0 0 0 0 0 0 0 0 0 0 0 0 0 0 0 0 0 0 0 0 0 0 0 0 0 0 0 0 0 0 0 0 0 0 0 0 0 0 0 0 0 0 0 0 0 0 0 0 0 0 0 0 0 0 0 0 0 0 0 0 0 0 0 0 0 0 0 0 0 0 0 0 0 0 0 0 0 0 0 0 0 0 0 0 0 0 0 0 0 0 0 0 0 0 0 0 0 0 0 0 0 0 0 0 0 0 0 0 0 0 0 0 0 0 0 0 0 0 0 0 0 0 0 0 0 0 0 0 0 0 0 0 0 0 0 0 0 0 0 0 0 0 0 0 0 0 0 0 0 0 0 0 0 0 0 0 0 0 0 0 0 0 0 0 0 0 0 0 0 0 0 0 0 0 0 0 0 0 0 0 0 0 0 0 0 0 0 0 0 0 0 0 0 0 0 0 0 0 0 0 0 0 0 
        </DataArray>
      </CellData>
    </Piece>
  </UnstructuredGrid>
</VTKFile>
