<?xml version="1.0"?>
<!-- Time step: 39 | Time: 2.000000000000e+00 -->
<VTKFile type="UnstructuredGrid" version="0.1" byte_order="LittleEndian">
  <UnstructuredGrid>
    <Piece NumberOfPoints="527" NumberOfCells="480">
      <Points>
        <DataArray type="Float64" NumberOfComponents="3" format="ascii">
          1.750000000000e-01 0.000000000000e+00 0.000000000000e+00
          1.766666666667e-01 0.000000000000e+00 0.000000000000e+00
          1.783333333333e-01 0.000000000000e+00 0.000000000000e+00
          1.800000000000e-01 0.000000000000e+00 0.000000000000e+00
          1.816666666667e-01 0.000000000000e+00 0.000000000000e+00
          1.833333333333e-01 0.000000000000e+00 0.000000000000e+00
          1.850000000000e-01 0.000000000000e+00 0.000000000000e+00
          1.866666666667e-01 0.000000000000e+00 0.000000000000e+00
          1.883333333333e-01 0.000000000000e+00 0.000000000000e+00
          1.900000000000e-01 0.000000000000e+00 0.000000000000e+00
          1.916666666667e-01 0.000000000000e+00 0.000000000000e+00
          1.933333333333e-01 0.000000000000e+00 0.000000000000e+00
          1.950000000000e-01 0.000000000000e+00 0.000000000000e+00
          1.966666666667e-01 0.000000000000e+00 0.000000000000e+00
          1.983333333333e-01 0.000000000000e+00 0.000000000000e+00
          2.000000000000e-01 0.000000000000e+00 0.000000000000e+00
          2.016666666667e-01 0.000000000000e+00 0.000000000000e+00
          2.033333333333e-01 0.000000000000e+00 0.000000000000e+00
          2.050000000000e-01 0.000000000000e+00 0.000000000000e+00
          2.066666666667e-01 0.000000000000e+00 0.000000000000e+00
          2.083333333333e-01 0.000000000000e+00 0.000000000000e+00
          2.100000000000e-01 0.000000000000e+00 0.000000000000e+00
          2.116666666667e-01 0.000000000000e+00 0.000000000000e+00
          2.133333333333e-01 0.000000000000e+00 0.000000000000e+00
          2.150000000000e-01 0.000000000000e+00 0.000000000000e+00
          2.166666666667e-01 0.000000000000e+00 0.000000000000e+00
          2.183333333333e-01 0.000000000000e+00 0.000000000000e+00
          2.200000000000e-01 0.000000000000e+00 0.000000000000e+00
          2.216666666667e-01 0.000000000000e+00 0.000000000000e+00
          2.233333333333e-01 0.000000000000e+00 0.000000000000e+00
          2.250000000000e-01 0.000000000000e+00 0.000000000000e+00
          1.741573271428e-01 1.715299981026e-02 0.000000000000e+00
          1.758159683536e-01 1.731636171321e-02 0.000000000000e+00
          1.774746095645e-01 1.747972361617e-02 0.000000000000e+00
          1.791332507754e-01 1.764308551912e-02 0.000000000000e+00
          1.807918919863e-01 1.780644742208e-02 0.000000000000e+00
          1.824505331972e-01 1.796980932503e-02 0.000000000000e+00
          1.841091744081e-01 1.813317122799e-02 0.000000000000e+00
          1.857678156189e-01 1.829653313094e-02 0.000000000000e+00
          1.874264568298e-01 1.845989503390e-02 0.000000000000e+00
          1.890850980407e-01 1.862325693685e-02 0.000000000000e+00
          1.907437392516e-01 1.878661883981e-02 0.000000000000e+00
          1.924023804625e-01 1.894998074276e-02 0.000000000000e+00
          1.940610216734e-01 1.911334264571e-02 0.000000000000e+00
          1.957196628842e-01 1.927670454867e-02 0.000000000000e+00
          1.973783040951e-01 1.944006645162e-02 0.000000000000e+00
          1.990369453060e-01 1.960342835458e-02 0.000000000000e+00
          2.006955865169e-01 1.976679025753e-02 0.000000000000e+00
          2.023542277278e-01 1.993015216049e-02 0.000000000000e+00
          2.040128689387e-01 2.009351406344e-02 0.000000000000e+00
          2.056715101495e-01 2.025687596640e-02 0.000000000000e+00
          2.073301513604e-01 2.042023786935e-02 0.000000000000e+00
          2.089887925713e-01 2.058359977231e-02 0.000000000000e+00
          2.106474337822e-01 2.074696167526e-02 0.000000000000e+00
          2.123060749931e-01 2.091032357822e-02 0.000000000000e+00
          2.139647162040e-01 2.107368548117e-02 0.000000000000e+00
          2.156233574148e-01 2.123704738413e-02 0.000000000000e+00
          2.172819986257e-01 2.140040928708e-02 0.000000000000e+00
          2.189406398366e-01 2.156377119004e-02 0.000000000000e+00
          2.205992810475e-01 2.172713309299e-02 0.000000000000e+00
          2.222579222584e-01 2.189049499595e-02 0.000000000000e+00
          2.239165634693e-01 2.205385689890e-02 0.000000000000e+00
          1.716374239715e-01 3.414080685068e-02 0.000000000000e+00
          1.732720661046e-01 3.446595739212e-02 0.000000000000e+00
          1.749067082377e-01 3.479110793355e-02 0.000000000000e+00
          1.765413503707e-01 3.511625847499e-02 0.000000000000e+00
          1.781759925038e-01 3.544140901642e-02 0.000000000000e+00
          1.798106346368e-01 3.576655955786e-02 0.000000000000e+00
          1.814452767699e-01 3.609171009929e-02 0.000000000000e+00
          1.830799189030e-01 3.641686064073e-02 0.000000000000e+00
          1.847145610360e-01 3.674201118216e-02 0.000000000000e+00
          1.863492031691e-01 3.706716172360e-02 0.000000000000e+00
          1.879838453022e-01 3.739231226503e-02 0.000000000000e+00
          1.896184874352e-01 3.771746280647e-02 0.000000000000e+00
          1.912531295683e-01 3.804261334790e-02 0.000000000000e+00
          1.928877717013e-01 3.836776388934e-02 0.000000000000e+00
          1.945224138344e-01 3.869291443077e-02 0.000000000000e+00
          1.961570559675e-01 3.901806497221e-02 0.000000000000e+00
          1.977916981005e-01 3.934321551364e-02 0.000000000000e+00
          1.994263402336e-01 3.966836605508e-02 0.000000000000e+00
          2.010609823667e-01 3.999351659651e-02 0.000000000000e+00
          2.026956244997e-01 4.031866713795e-02 0.000000000000e+00
          2.043302666328e-01 4.064381767938e-02 0.000000000000e+00
          2.059649087658e-01 4.096896822082e-02 0.000000000000e+00
          2.075995508989e-01 4.129411876225e-02 0.000000000000e+00
          2.092341930320e-01 4.161926930369e-02 0.000000000000e+00
          2.108688351650e-01 4.194441984512e-02 0.000000000000e+00
          2.125034772981e-01 4.226957038656e-02 0.000000000000e+00
          2.141381194312e-01 4.259472092799e-02 0.000000000000e+00
          2.157727615642e-01 4.291987146943e-02 0.000000000000e+00
          2.174074036973e-01 4.324502201086e-02 0.000000000000e+00
          2.190420458303e-01 4.357017255230e-02 0.000000000000e+00
          2.206766879634e-01 4.389532309373e-02 0.000000000000e+00
          1.674645585321e-01 5.079981924816e-02 0.000000000000e+00
          1.690594590896e-01 5.128362705053e-02 0.000000000000e+00
          1.706543596470e-01 5.176743485289e-02 0.000000000000e+00
          1.722492602045e-01 5.225124265525e-02 0.000000000000e+00
          1.738441607619e-01 5.273505045762e-02 0.000000000000e+00
          1.754390613194e-01 5.321885825998e-02 0.000000000000e+00
          1.770339618768e-01 5.370266606234e-02 0.000000000000e+00
          1.786288624342e-01 5.418647386471e-02 0.000000000000e+00
          1.802237629917e-01 5.467028166707e-02 0.000000000000e+00
          1.818186635491e-01 5.515408946943e-02 0.000000000000e+00
          1.834135641066e-01 5.563789727180e-02 0.000000000000e+00
          1.850084646640e-01 5.612170507416e-02 0.000000000000e+00
          1.866033652215e-01 5.660551287652e-02 0.000000000000e+00
          1.881982657789e-01 5.708932067889e-02 0.000000000000e+00
          1.897931663364e-01 5.757312848125e-02 0.000000000000e+00
          1.913880668938e-01 5.805693628361e-02 0.000000000000e+00
          1.929829674513e-01 5.854074408598e-02 0.000000000000e+00
          1.945778680087e-01 5.902455188834e-02 0.000000000000e+00
          1.961727685662e-01 5.950835969070e-02 0.000000000000e+00
          1.977676691236e-01 5.999216749307e-02 0.000000000000e+00
          1.993625696811e-01 6.047597529543e-02 0.000000000000e+00
          2.009574702385e-01 6.095978309779e-02 0.000000000000e+00
          2.025523707960e-01 6.144359090016e-02 0.000000000000e+00
          2.041472713534e-01 6.192739870252e-02 0.000000000000e+00
          2.057421719109e-01 6.241120650488e-02 0.000000000000e+00
          2.073370724683e-01 6.289501430725e-02 0.000000000000e+00
          2.089319730258e-01 6.337882210961e-02 0.000000000000e+00
          2.105268735832e-01 6.386262991198e-02 0.000000000000e+00
          2.121217741407e-01 6.434643771434e-02 0.000000000000e+00
          2.137166746981e-01 6.483024551670e-02 0.000000000000e+00
          2.153115752556e-01 6.531405331907e-02 0.000000000000e+00
          1.616789178010e-01 6.696960160183e-02 0.000000000000e+00
          1.632187170181e-01 6.760740733138e-02 0.000000000000e+00
          1.647585162353e-01 6.824521306092e-02 0.000000000000e+00
          1.662983154524e-01 6.888301879046e-02 0.000000000000e+00
          1.678381146696e-01 6.952082452000e-02 0.000000000000e+00
          1.693779138867e-01 7.015863024954e-02 0.000000000000e+00
          1.709177131039e-01 7.079643597908e-02 0.000000000000e+00
          1.724575123210e-01 7.143424170862e-02 0.000000000000e+00
          1.739973115382e-01 7.207204743817e-02 0.000000000000e+00
          1.755371107553e-01 7.270985316771e-02 0.000000000000e+00
          1.770769099725e-01 7.334765889725e-02 0.000000000000e+00
          1.786167091896e-01 7.398546462679e-02 0.000000000000e+00
          1.801565084068e-01 7.462327035633e-02 0.000000000000e+00
          1.816963076239e-01 7.526107608587e-02 0.000000000000e+00
          1.832361068411e-01 7.589888181541e-02 0.000000000000e+00
          1.847759060582e-01 7.653668754495e-02 0.000000000000e+00
          1.863157052754e-01 7.717449327450e-02 0.000000000000e+00
          1.878555044926e-01 7.781229900404e-02 0.000000000000e+00
          1.893953037097e-01 7.845010473358e-02 0.000000000000e+00
          1.909351029269e-01 7.908791046312e-02 0.000000000000e+00
          1.924749021440e-01 7.972571619266e-02 0.000000000000e+00
          1.940147013612e-01 8.036352192220e-02 0.000000000000e+00
          1.955545005783e-01 8.100132765174e-02 0.000000000000e+00
          1.970942997955e-01 8.163913338128e-02 0.000000000000e+00
          1.986340990126e-01 8.227693911083e-02 0.000000000000e+00
          2.001738982298e-01 8.291474484037e-02 0.000000000000e+00
          2.017136974469e-01 8.355255056991e-02 0.000000000000e+00
          2.032534966641e-01 8.419035629945e-02 0.000000000000e+00
          2.047932958812e-01 8.482816202899e-02 0.000000000000e+00
          2.063330950984e-01 8.546596775853e-02 0.000000000000e+00
          2.078728943155e-01 8.610377348807e-02 0.000000000000e+00
          1.543362206627e-01 8.249443006373e-02 0.000000000000e+00
          1.558060894310e-01 8.328009130244e-02 0.000000000000e+00
          1.572759581992e-01 8.406575254114e-02 0.000000000000e+00
          1.587458269674e-01 8.485141377984e-02 0.000000000000e+00
          1.602156957356e-01 8.563707501854e-02 0.000000000000e+00
          1.616855645038e-01 8.642273625724e-02 0.000000000000e+00
          1.631554332720e-01 8.720839749595e-02 0.000000000000e+00
          1.646253020403e-01 8.799405873465e-02 0.000000000000e+00
          1.660951708085e-01 8.877971997335e-02 0.000000000000e+00
          1.675650395767e-01 8.956538121205e-02 0.000000000000e+00
          1.690349083449e-01 9.035104245076e-02 0.000000000000e+00
          1.705047771131e-01 9.113670368946e-02 0.000000000000e+00
          1.719746458813e-01 9.192236492816e-02 0.000000000000e+00
          1.734445146496e-01 9.270802616686e-02 0.000000000000e+00
          1.749143834178e-01 9.349368740556e-02 0.000000000000e+00
          1.763842521860e-01 9.427934864427e-02 0.000000000000e+00
          1.778541209542e-01 9.506500988297e-02 0.000000000000e+00
          1.793239897224e-01 9.585067112167e-02 0.000000000000e+00
          1.807938584906e-01 9.663633236037e-02 0.000000000000e+00
          1.822637272589e-01 9.742199359908e-02 0.000000000000e+00
          1.837335960271e-01 9.820765483778e-02 0.000000000000e+00
          1.852034647953e-01 9.899331607648e-02 0.000000000000e+00
          1.866733335635e-01 9.977897731518e-02 0.000000000000e+00
          1.881432023317e-01 1.005646385539e-01 0.000000000000e+00
          1.896130710999e-01 1.013502997926e-01 0.000000000000e+00
          1.910829398682e-01 1.021359610313e-01 0.000000000000e+00
          1.925528086364e-01 1.029216222700e-01 0.000000000000e+00
          1.940226774046e-01 1.037072835087e-01 0.000000000000e+00
          1.954925461728e-01 1.044929447474e-01 0.000000000000e+00
          1.969624149410e-01 1.052786059861e-01 0.000000000000e+00
          1.984322837092e-01 1.060642672248e-01 0.000000000000e+00
          1.455071813069e-01 9.722479204462e-02 0.000000000000e+00
          1.468929639860e-01 9.815074244505e-02 0.000000000000e+00
          1.482787466651e-01 9.907669284547e-02 0.000000000000e+00
          1.496645293442e-01 1.000026432459e-01 0.000000000000e+00
          1.510503120234e-01 1.009285936463e-01 0.000000000000e+00
          1.524360947025e-01 1.018545440467e-01 0.000000000000e+00
          1.538218773816e-01 1.027804944472e-01 0.000000000000e+00
          1.552076600607e-01 1.037064448476e-01 0.000000000000e+00
          1.565934427398e-01 1.046323952480e-01 0.000000000000e+00
          1.579792254189e-01 1.055583456484e-01 0.000000000000e+00
          1.593650080980e-01 1.064842960489e-01 0.000000000000e+00
          1.607507907772e-01 1.074102464493e-01 0.000000000000e+00
          1.621365734563e-01 1.083361968497e-01 0.000000000000e+00
          1.635223561354e-01 1.092621472501e-01 0.000000000000e+00
          1.649081388145e-01 1.101880976506e-01 0.000000000000e+00
          1.662939214936e-01 1.111140480510e-01 0.000000000000e+00
          1.676797041727e-01 1.120399984514e-01 0.000000000000e+00
          1.690654868518e-01 1.129659488518e-01 0.000000000000e+00
          1.704512695309e-01 1.138918992523e-01 0.000000000000e+00
          1.718370522101e-01 1.148178496527e-01 0.000000000000e+00
          1.732228348892e-01 1.157438000531e-01 0.000000000000e+00
          1.746086175683e-01 1.166697504535e-01 0.000000000000e+00
          1.759944002474e-01 1.175957008540e-01 0.000000000000e+00
          1.773801829265e-01 1.185216512544e-01 0.000000000000e+00
          1.787659656056e-01 1.194476016548e-01 0.000000000000e+00
          1.801517482847e-01 1.203735520552e-01 0.000000000000e+00
          1.815375309639e-01 1.212995024557e-01 0.000000000000e+00
          1.829233136430e-01 1.222254528561e-01 0.000000000000e+00
          1.843090963221e-01 1.231514032565e-01 0.000000000000e+00
          1.856948790012e-01 1.240773536569e-01 0.000000000000e+00
          1.870806616803e-01 1.250033040574e-01 0.000000000000e+00
          1.352768282114e-01 1.110188261020e-01 0.000000000000e+00
          1.365651789563e-01 1.120761482554e-01 0.000000000000e+00
          1.378535297011e-01 1.131334704087e-01 0.000000000000e+00
          1.391418804460e-01 1.141907925621e-01 0.000000000000e+00
          1.404302311909e-01 1.152481147154e-01 0.000000000000e+00
          1.417185819357e-01 1.163054368688e-01 0.000000000000e+00
          1.430069326806e-01 1.173627590221e-01 0.000000000000e+00
          1.442952834255e-01 1.184200811755e-01 0.000000000000e+00
          1.455836341704e-01 1.194774033288e-01 0.000000000000e+00
          1.468719849152e-01 1.205347254822e-01 0.000000000000e+00
          1.481603356601e-01 1.215920476355e-01 0.000000000000e+00
          1.494486864050e-01 1.226493697889e-01 0.000000000000e+00
          1.507370371498e-01 1.237066919422e-01 0.000000000000e+00
          1.520253878947e-01 1.247640140956e-01 0.000000000000e+00
          1.533137386396e-01 1.258213362489e-01 0.000000000000e+00
          1.546020893844e-01 1.268786584023e-01 0.000000000000e+00
          1.558904401293e-01 1.279359805556e-01 0.000000000000e+00
          1.571787908742e-01 1.289933027090e-01 0.000000000000e+00
          1.584671416191e-01 1.300506248623e-01 0.000000000000e+00
          1.597554923639e-01 1.311079470157e-01 0.000000000000e+00
          1.610438431088e-01 1.321652691690e-01 0.000000000000e+00
          1.623321938537e-01 1.332225913224e-01 0.000000000000e+00
          1.636205445985e-01 1.342799134758e-01 0.000000000000e+00
          1.649088953434e-01 1.353372356291e-01 0.000000000000e+00
          1.661972460883e-01 1.363945577825e-01 0.000000000000e+00
          1.674855968332e-01 1.374518799358e-01 0.000000000000e+00
          1.687739475780e-01 1.385092020892e-01 0.000000000000e+00
          1.700622983229e-01 1.395665242425e-01 0.000000000000e+00
          1.713506490678e-01 1.406238463959e-01 0.000000000000e+00
          1.726389998126e-01 1.416811685492e-01 0.000000000000e+00
          1.739273505575e-01 1.427384907026e-01 0.000000000000e+00
          1.237436852719e-01 1.237436881434e-01 0.000000000000e+00
          1.249221965602e-01 1.249221994590e-01 0.000000000000e+00
          1.261007078485e-01 1.261007107747e-01 0.000000000000e+00
          1.272792191368e-01 1.272792220903e-01 0.000000000000e+00
          1.284577304251e-01 1.284577334060e-01 0.000000000000e+00
          1.296362417134e-01 1.296362447216e-01 0.000000000000e+00
          1.308147530017e-01 1.308147560373e-01 0.000000000000e+00
          1.319932642900e-01 1.319932673529e-01 0.000000000000e+00
          1.331717755783e-01 1.331717786686e-01 0.000000000000e+00
          1.343502868666e-01 1.343502899842e-01 0.000000000000e+00
          1.355287981549e-01 1.355288012999e-01 0.000000000000e+00
          1.367073094432e-01 1.367073126156e-01 0.000000000000e+00
          1.378858207315e-01 1.378858239312e-01 0.000000000000e+00
          1.390643320199e-01 1.390643352469e-01 0.000000000000e+00
          1.402428433082e-01 1.402428465625e-01 0.000000000000e+00
          1.414213545965e-01 1.414213578782e-01 0.000000000000e+00
          1.425998658848e-01 1.425998691938e-01 0.000000000000e+00
          1.437783771731e-01 1.437783805095e-01 0.000000000000e+00
          1.449568884614e-01 1.449568918251e-01 0.000000000000e+00
          1.461353997497e-01 1.461354031408e-01 0.000000000000e+00
          1.473139110380e-01 1.473139144564e-01 0.000000000000e+00
          1.484924223263e-01 1.484924257721e-01 0.000000000000e+00
          1.496709336146e-01 1.496709370877e-01 0.000000000000e+00
          1.508494449029e-01 1.508494484034e-01 0.000000000000e+00
          1.520279561912e-01 1.520279597190e-01 0.000000000000e+00
          1.532064674795e-01 1.532064710347e-01 0.000000000000e+00
          1.543849787678e-01 1.543849823503e-01 0.000000000000e+00
          1.555634900561e-01 1.555634936660e-01 0.000000000000e+00
          1.567420013444e-01 1.567420049816e-01 0.000000000000e+00
          1.579205126327e-01 1.579205162973e-01 0.000000000000e+00
          1.590990239210e-01 1.590990276129e-01 0.000000000000e+00
          1.110188229629e-01 1.352768307876e-01 0.000000000000e+00
          1.120761450863e-01 1.365651815570e-01 0.000000000000e+00
          1.131334672098e-01 1.378535323264e-01 0.000000000000e+00
          1.141907893333e-01 1.391418830958e-01 0.000000000000e+00
          1.152481114567e-01 1.404302338652e-01 0.000000000000e+00
          1.163054335802e-01 1.417185846346e-01 0.000000000000e+00
          1.173627557036e-01 1.430069354040e-01 0.000000000000e+00
          1.184200778271e-01 1.442952861734e-01 0.000000000000e+00
          1.194773999505e-01 1.455836369428e-01 0.000000000000e+00
          1.205347220740e-01 1.468719877122e-01 0.000000000000e+00
          1.215920441974e-01 1.481603384817e-01 0.000000000000e+00
          1.226493663209e-01 1.494486892511e-01 0.000000000000e+00
          1.237066884444e-01 1.507370400205e-01 0.000000000000e+00
          1.247640105678e-01 1.520253907899e-01 0.000000000000e+00
          1.258213326913e-01 1.533137415593e-01 0.000000000000e+00
          1.268786548147e-01 1.546020923287e-01 0.000000000000e+00
          1.279359769382e-01 1.558904430981e-01 0.000000000000e+00
          1.289932990616e-01 1.571787938675e-01 0.000000000000e+00
          1.300506211851e-01 1.584671446369e-01 0.000000000000e+00
          1.311079433086e-01 1.597554954063e-01 0.000000000000e+00
          1.321652654320e-01 1.610438461757e-01 0.000000000000e+00
          1.332225875555e-01 1.623321969451e-01 0.000000000000e+00
          1.342799096789e-01 1.636205477145e-01 0.000000000000e+00
          1.353372318024e-01 1.649088984839e-01 0.000000000000e+00
          1.363945539258e-01 1.661972492533e-01 0.000000000000e+00
          1.374518760493e-01 1.674856000227e-01 0.000000000000e+00
          1.385091981727e-01 1.687739507921e-01 0.000000000000e+00
          1.395665202962e-01 1.700623015615e-01 0.000000000000e+00
          1.406238424197e-01 1.713506523310e-01 0.000000000000e+00
          1.416811645431e-01 1.726390031004e-01 0.000000000000e+00
          1.427384866666e-01 1.739273538698e-01 0.000000000000e+00
          9.722478866811e-02 1.455071835630e-01 0.000000000000e+00
          9.815073903638e-02 1.468929662636e-01 0.000000000000e+00
          9.907668940465e-02 1.482787489642e-01 0.000000000000e+00
          1.000026397729e-01 1.496645316648e-01 0.000000000000e+00
          1.009285901412e-01 1.510503143654e-01 0.000000000000e+00
          1.018545405095e-01 1.524360970660e-01 0.000000000000e+00
          1.027804908777e-01 1.538218797666e-01 0.000000000000e+00
          1.037064412460e-01 1.552076624672e-01 0.000000000000e+00
          1.046323916143e-01 1.565934451678e-01 0.000000000000e+00
          1.055583419825e-01 1.579792278684e-01 0.000000000000e+00
          1.064842923508e-01 1.593650105690e-01 0.000000000000e+00
          1.074102427191e-01 1.607507932696e-01 0.000000000000e+00
          1.083361930873e-01 1.621365759702e-01 0.000000000000e+00
          1.092621434556e-01 1.635223586708e-01 0.000000000000e+00
          1.101880938239e-01 1.649081413714e-01 0.000000000000e+00
          1.111140441921e-01 1.662939240720e-01 0.000000000000e+00
          1.120399945604e-01 1.676797067726e-01 0.000000000000e+00
          1.129659449287e-01 1.690654894732e-01 0.000000000000e+00
          1.138918952969e-01 1.704512721738e-01 0.000000000000e+00
          1.148178456652e-01 1.718370548744e-01 0.000000000000e+00
          1.157437960335e-01 1.732228375750e-01 0.000000000000e+00
          1.166697464017e-01 1.746086202756e-01 0.000000000000e+00
          1.175956967700e-01 1.759944029762e-01 0.000000000000e+00
          1.185216471383e-01 1.773801856768e-01 0.000000000000e+00
          1.194475975065e-01 1.787659683774e-01 0.000000000000e+00
          1.203735478748e-01 1.801517510780e-01 0.000000000000e+00
          1.212994982431e-01 1.815375337786e-01 0.000000000000e+00
          1.222254486113e-01 1.829233164792e-01 0.000000000000e+00
          1.231513989796e-01 1.843090991798e-01 0.000000000000e+00
          1.240773493479e-01 1.856948818804e-01 0.000000000000e+00
          1.250032997161e-01 1.870806645810e-01 0.000000000000e+00
          8.249442648235e-02 1.543362225770e-01 0.000000000000e+00
          8.328008768694e-02 1.558060913635e-01 0.000000000000e+00
          8.406574889153e-02 1.572759601499e-01 0.000000000000e+00
          8.485141009613e-02 1.587458289364e-01 0.000000000000e+00
          8.563707130072e-02 1.602156977228e-01 0.000000000000e+00
          8.642273250531e-02 1.616855665093e-01 0.000000000000e+00
          8.720839370991e-02 1.631554352957e-01 0.000000000000e+00
          8.799405491450e-02 1.646253040822e-01 0.000000000000e+00
          8.877971611910e-02 1.660951728686e-01 0.000000000000e+00
          8.956537732369e-02 1.675650416551e-01 0.000000000000e+00
          9.035103852828e-02 1.690349104415e-01 0.000000000000e+00
          9.113669973288e-02 1.705047792280e-01 0.000000000000e+00
          9.192236093747e-02 1.719746480144e-01 0.000000000000e+00
          9.270802214206e-02 1.734445168009e-01 0.000000000000e+00
          9.349368334666e-02 1.749143855873e-01 0.000000000000e+00
          9.427934455125e-02 1.763842543738e-01 0.000000000000e+00
          9.506500575585e-02 1.778541231602e-01 0.000000000000e+00
          9.585066696044e-02 1.793239919467e-01 0.000000000000e+00
          9.663632816503e-02 1.807938607331e-01 0.000000000000e+00
          9.742198936963e-02 1.822637295195e-01 0.000000000000e+00
          9.820765057422e-02 1.837335983060e-01 0.000000000000e+00
          9.899331177881e-02 1.852034670924e-01 0.000000000000e+00
          9.977897298341e-02 1.866733358789e-01 0.000000000000e+00
          1.005646341880e-01 1.881432046653e-01 0.000000000000e+00
          1.013502953926e-01 1.896130734518e-01 0.000000000000e+00
          1.021359565972e-01 1.910829422382e-01 0.000000000000e+00
          1.029216178018e-01 1.925528110247e-01 0.000000000000e+00
          1.037072790064e-01 1.940226798111e-01 0.000000000000e+00
          1.044929402110e-01 1.954925485976e-01 0.000000000000e+00
          1.052786014156e-01 1.969624173840e-01 0.000000000000e+00
          1.060642626202e-01 1.984322861705e-01 0.000000000000e+00
          6.696959785006e-02 1.616789193550e-01 0.000000000000e+00
          6.760740354387e-02 1.632187185870e-01 0.000000000000e+00
          6.824520923768e-02 1.647585178189e-01 0.000000000000e+00
          6.888301493149e-02 1.662983170509e-01 0.000000000000e+00
          6.952082062530e-02 1.678381162828e-01 0.000000000000e+00
          7.015862631911e-02 1.693779155148e-01 0.000000000000e+00
          7.079643201292e-02 1.709177147467e-01 0.000000000000e+00
          7.143423770673e-02 1.724575139787e-01 0.000000000000e+00
          7.207204340054e-02 1.739973132106e-01 0.000000000000e+00
          7.270984909435e-02 1.755371124426e-01 0.000000000000e+00
          7.334765478816e-02 1.770769116745e-01 0.000000000000e+00
          7.398546048197e-02 1.786167109065e-01 0.000000000000e+00
          7.462326617578e-02 1.801565101384e-01 0.000000000000e+00
          7.526107186959e-02 1.816963093704e-01 0.000000000000e+00
          7.589887756340e-02 1.832361086023e-01 0.000000000000e+00
          7.653668325721e-02 1.847759078343e-01 0.000000000000e+00
          7.717448895102e-02 1.863157070662e-01 0.000000000000e+00
          7.781229464483e-02 1.878555062982e-01 0.000000000000e+00
          7.845010033864e-02 1.893953055301e-01 0.000000000000e+00
          7.908790603245e-02 1.909351047621e-01 0.000000000000e+00
          7.972571172626e-02 1.924749039941e-01 0.000000000000e+00
          8.036351742007e-02 1.940147032260e-01 0.000000000000e+00
          8.100132311388e-02 1.955545024580e-01 0.000000000000e+00
          8.163912880769e-02 1.970943016899e-01 0.000000000000e+00
          8.227693450150e-02 1.986341009219e-01 0.000000000000e+00
          8.291474019531e-02 2.001739001538e-01 0.000000000000e+00
          8.355254588912e-02 2.017136993858e-01 0.000000000000e+00
          8.419035158293e-02 2.032534986177e-01 0.000000000000e+00
          8.482815727674e-02 2.047932978497e-01 0.000000000000e+00
          8.546596297055e-02 2.063330970816e-01 0.000000000000e+00
          8.610376866436e-02 2.078728963136e-01 0.000000000000e+00
          5.079981536213e-02 1.674645597109e-01 0.000000000000e+00
          5.128362312748e-02 1.690594602796e-01 0.000000000000e+00
          5.176743089284e-02 1.706543608483e-01 0.000000000000e+00
          5.225123865819e-02 1.722492614169e-01 0.000000000000e+00
          5.273504642354e-02 1.738441619856e-01 0.000000000000e+00
          5.321885418890e-02 1.754390625543e-01 0.000000000000e+00
          5.370266195425e-02 1.770339631230e-01 0.000000000000e+00
          5.418646971960e-02 1.786288636917e-01 0.000000000000e+00
          5.467027748496e-02 1.802237642603e-01 0.000000000000e+00
          5.515408525031e-02 1.818186648290e-01 0.000000000000e+00
          5.563789301567e-02 1.834135653977e-01 0.000000000000e+00
          5.612170078102e-02 1.850084659664e-01 0.000000000000e+00
          5.660550854637e-02 1.866033665350e-01 0.000000000000e+00
          5.708931631173e-02 1.881982671037e-01 0.000000000000e+00
          5.757312407708e-02 1.897931676724e-01 0.000000000000e+00
          5.805693184243e-02 1.913880682411e-01 0.000000000000e+00
          5.854073960779e-02 1.929829688097e-01 0.000000000000e+00
          5.902454737314e-02 1.945778693784e-01 0.000000000000e+00
          5.950835513849e-02 1.961727699471e-01 0.000000000000e+00
          5.999216290385e-02 1.977676705158e-01 0.000000000000e+00
          6.047597066920e-02 1.993625710844e-01 0.000000000000e+00
          6.095977843456e-02 2.009574716531e-01 0.000000000000e+00
          6.144358619991e-02 2.025523722218e-01 0.000000000000e+00
          6.192739396526e-02 2.041472727905e-01 0.000000000000e+00
          6.241120173062e-02 2.057421733591e-01 0.000000000000e+00
          6.289500949597e-02 2.073370739278e-01 0.000000000000e+00
          6.337881726132e-02 2.089319744965e-01 0.000000000000e+00
          6.386262502668e-02 2.105268750652e-01 0.000000000000e+00
          6.434643279203e-02 2.121217756338e-01 0.000000000000e+00
          6.483024055738e-02 2.137166762025e-01 0.000000000000e+00
          6.531404832274e-02 2.153115767712e-01 0.000000000000e+00
          3.414080286782e-02 1.716374247638e-01 0.000000000000e+00
          3.446595337132e-02 1.732720669044e-01 0.000000000000e+00
          3.479110387482e-02 1.749067090450e-01 0.000000000000e+00
          3.511625437833e-02 1.765413511856e-01 0.000000000000e+00
          3.544140488183e-02 1.781759933262e-01 0.000000000000e+00
          3.576655538533e-02 1.798106354668e-01 0.000000000000e+00
          3.609170588883e-02 1.814452776074e-01 0.000000000000e+00
          3.641685639234e-02 1.830799197480e-01 0.000000000000e+00
          3.674200689584e-02 1.847145618886e-01 0.000000000000e+00
          3.706715739934e-02 1.863492040292e-01 0.000000000000e+00
          3.739230790285e-02 1.879838461699e-01 0.000000000000e+00
          3.771745840635e-02 1.896184883105e-01 0.000000000000e+00
          3.804260890985e-02 1.912531304511e-01 0.000000000000e+00
          3.836775941336e-02 1.928877725917e-01 0.000000000000e+00
          3.869290991686e-02 1.945224147323e-01 0.000000000000e+00
          3.901806042036e-02 1.961570568729e-01 0.000000000000e+00
          3.934321092386e-02 1.977916990135e-01 0.000000000000e+00
          3.966836142737e-02 1.994263411541e-01 0.000000000000e+00
          3.999351193087e-02 2.010609832947e-01 0.000000000000e+00
          4.031866243437e-02 2.026956254353e-01 0.000000000000e+00
          4.064381293788e-02 2.043302675759e-01 0.000000000000e+00
          4.096896344138e-02 2.059649097165e-01 0.000000000000e+00
          4.129411394488e-02 2.075995518571e-01 0.000000000000e+00
          4.161926444839e-02 2.092341939977e-01 0.000000000000e+00
          4.194441495189e-02 2.108688361384e-01 0.000000000000e+00
          4.226956545539e-02 2.125034782790e-01 0.000000000000e+00
          4.259471595889e-02 2.141381204196e-01 0.000000000000e+00
          4.291986646240e-02 2.157727625602e-01 0.000000000000e+00
          4.324501696590e-02 2.174074047008e-01 0.000000000000e+00
          4.357016746940e-02 2.190420468414e-01 0.000000000000e+00
          4.389531797291e-02 2.206766889820e-01 0.000000000000e+00
          1.715299576892e-02 1.741573275408e-01 0.000000000000e+00
          1.731635763338e-02 1.758159687555e-01 0.000000000000e+00
          1.747971949785e-02 1.774746099701e-01 0.000000000000e+00
          1.764308136232e-02 1.791332511848e-01 0.000000000000e+00
          1.780644322678e-02 1.807918923995e-01 0.000000000000e+00
          1.796980509125e-02 1.824505336142e-01 0.000000000000e+00
          1.813316695571e-02 1.841091748288e-01 0.000000000000e+00
          1.829652882018e-02 1.857678160435e-01 0.000000000000e+00
          1.845989068465e-02 1.874264572582e-01 0.000000000000e+00
          1.862325254911e-02 1.890850984729e-01 0.000000000000e+00
          1.878661441358e-02 1.907437396875e-01 0.000000000000e+00
          1.894997627804e-02 1.924023809022e-01 0.000000000000e+00
          1.911333814251e-02 1.940610221169e-01 0.000000000000e+00
          1.927670000697e-02 1.957196633316e-01 0.000000000000e+00
          1.944006187144e-02 1.973783045462e-01 0.000000000000e+00
          1.960342373591e-02 1.990369457609e-01 0.000000000000e+00
          1.976678560037e-02 2.006955869756e-01 0.000000000000e+00
          1.993014746484e-02 2.023542281903e-01 0.000000000000e+00
          2.009350932930e-02 2.040128694049e-01 0.000000000000e+00
          2.025687119377e-02 2.056715106196e-01 0.000000000000e+00
          2.042023305824e-02 2.073301518343e-01 0.000000000000e+00
          2.058359492270e-02 2.089887930490e-01 0.000000000000e+00
          2.074695678717e-02 2.106474342636e-01 0.000000000000e+00
          2.091031865163e-02 2.123060754783e-01 0.000000000000e+00
          2.107368051610e-02 2.139647166930e-01 0.000000000000e+00
          2.123704238057e-02 2.156233579076e-01 0.000000000000e+00
          2.140040424503e-02 2.172819991223e-01 0.000000000000e+00
          2.156376610950e-02 2.189406403370e-01 0.000000000000e+00
          2.172712797396e-02 2.205992815517e-01 0.000000000000e+00
          2.189048983843e-02 2.222579227663e-01 0.000000000000e+00
          2.205385170289e-02 2.239165639810e-01 0.000000000000e+00
          -4.060893083300e-09 1.750000000000e-01 0.000000000000e+00
          -4.099568255522e-09 1.766666666667e-01 0.000000000000e+00
          -4.138243427744e-09 1.783333333333e-01 0.000000000000e+00
          -4.176918599966e-09 1.800000000000e-01 0.000000000000e+00
          -4.215593772188e-09 1.816666666667e-01 0.000000000000e+00
          -4.254268944410e-09 1.833333333333e-01 0.000000000000e+00
          -4.292944116632e-09 1.850000000000e-01 0.000000000000e+00
          -4.331619288854e-09 1.866666666667e-01 0.000000000000e+00
          -4.370294461076e-09 1.883333333333e-01 0.000000000000e+00
          -4.408969633297e-09 1.900000000000e-01 0.000000000000e+00
          -4.447644805519e-09 1.916666666667e-01 0.000000000000e+00
          -4.486319977741e-09 1.933333333333e-01 0.000000000000e+00
          -4.524995149963e-09 1.950000000000e-01 0.000000000000e+00
          -4.563670322185e-09 1.966666666667e-01 0.000000000000e+00
          -4.602345494407e-09 1.983333333333e-01 0.000000000000e+00
          -4.641020666629e-09 2.000000000000e-01 0.000000000000e+00
          -4.679695838851e-09 2.016666666667e-01 0.000000000000e+00
          -4.718371011073e-09 2.033333333333e-01 0.000000000000e+00
          -4.757046183295e-09 2.050000000000e-01 0.000000000000e+00
          -4.795721355517e-09 2.066666666667e-01 0.000000000000e+00
          -4.834396527738e-09 2.083333333333e-01 0.000000000000e+00
          -4.873071699960e-09 2.100000000000e-01 0.000000000000e+00
          -4.911746872182e-09 2.116666666667e-01 0.000000000000e+00
          -4.950422044404e-09 2.133333333333e-01 0.000000000000e+00
          -4.989097216626e-09 2.150000000000e-01 0.000000000000e+00
          -5.027772388848e-09 2.166666666667e-01 0.000000000000e+00
          -5.066447561070e-09 2.183333333333e-01 0.000000000000e+00
          -5.105122733292e-09 2.200000000000e-01 0.000000000000e+00
          -5.143797905514e-09 2.216666666667e-01 0.000000000000e+00
          -5.182473077736e-09 2.233333333333e-01 0.000000000000e+00
          -5.221148249957e-09 2.250000000000e-01 0.000000000000e+00
        </DataArray>
      </Points>
      <Cells>
        <DataArray type="Int64" Name="connectivity" format="ascii">
          31 0 1 32 
          32 1 2 33 
          33 2 3 34 
          34 3 4 35 
          35 4 5 36 
          36 5 6 37 
          37 6 7 38 
          38 7 8 39 
          39 8 9 40 
          40 9 10 41 
          41 10 11 42 
          42 11 12 43 
          43 12 13 44 
          44 13 14 45 
          45 14 15 46 
          46 15 16 47 
          47 16 17 48 
          48 17 18 49 
          49 18 19 50 
          50 19 20 51 
          51 20 21 52 
          52 21 22 53 
          53 22 23 54 
          54 23 24 55 
          55 24 25 56 
          56 25 26 57 
          57 26 27 58 
          58 27 28 59 
          59 28 29 60 
          60 29 30 61 
          62 31 32 63 
          63 32 33 64 
          64 33 34 65 
          65 34 35 66 
          66 35 36 67 
          67 36 37 68 
          68 37 38 69 
          69 38 39 70 
          70 39 40 71 
          71 40 41 72 
          72 41 42 73 
          73 42 43 74 
          74 43 44 75 
          75 44 45 76 
          76 45 46 77 
          77 46 47 78 
          78 47 48 79 
          79 48 49 80 
          80 49 50 81 
          81 50 51 82 
          82 51 52 83 
          83 52 53 84 
          84 53 54 85 
          85 54 55 86 
          86 55 56 87 
          87 56 57 88 
          88 57 58 89 
          89 58 59 90 
          90 59 60 91 
          91 60 61 92 
          93 62 63 94 
          94 63 64 95 
          95 64 65 96 
          96 65 66 97 
          97 66 67 98 
          98 67 68 99 
          99 68 69 100 
          100 69 70 101 
          101 70 71 102 
          102 71 72 103 
          103 72 73 104 
          104 73 74 105 
          105 74 75 106 
          106 75 76 107 
          107 76 77 108 
          108 77 78 109 
          109 78 79 110 
          110 79 80 111 
          111 80 81 112 
          112 81 82 113 
          113 82 83 114 
          114 83 84 115 
          115 84 85 116 
          116 85 86 117 
          117 86 87 118 
          118 87 88 119 
          119 88 89 120 
          120 89 90 121 
          121 90 91 122 
          122 91 92 123 
          124 93 94 125 
          125 94 95 126 
          126 95 96 127 
          127 96 97 128 
          128 97 98 129 
          129 98 99 130 
          130 99 100 131 
          131 100 101 132 
          132 101 102 133 
          133 102 103 134 
          134 103 104 135 
          135 104 105 136 
          136 105 106 137 
          137 106 107 138 
          138 107 108 139 
          139 108 109 140 
          140 109 110 141 
          141 110 111 142 
          142 111 112 143 
          143 112 113 144 
          144 113 114 145 
          145 114 115 146 
          146 115 116 147 
          147 116 117 148 
          148 117 118 149 
          149 118 119 150 
          150 119 120 151 
          151 120 121 152 
          152 121 122 153 
          153 122 123 154 
          155 124 125 156 
          156 125 126 157 
          157 126 127 158 
          158 127 128 159 
          159 128 129 160 
          160 129 130 161 
          161 130 131 162 
          162 131 132 163 
          163 132 133 164 
          164 133 134 165 
          165 134 135 166 
          166 135 136 167 
          167 136 137 168 
          168 137 138 169 
          169 138 139 170 
          170 139 140 171 
          171 140 141 172 
          172 141 142 173 
          173 142 143 174 
          174 143 144 175 
          175 144 145 176 
          176 145 146 177 
          177 146 147 178 
          178 147 148 179 
          179 148 149 180 
          180 149 150 181 
          181 150 151 182 
          182 151 152 183 
          183 152 153 184 
          184 153 154 185 
          186 155 156 187 
          187 156 157 188 
          188 157 158 189 
          189 158 159 190 
          190 159 160 191 
          191 160 161 192 
          192 161 162 193 
          193 162 163 194 
          194 163 164 195 
          195 164 165 196 
          196 165 166 197 
          197 166 167 198 
          198 167 168 199 
          199 168 169 200 
          200 169 170 201 
          201 170 171 202 
          202 171 172 203 
          203 172 173 204 
          204 173 174 205 
          205 174 175 206 
          206 175 176 207 
          207 176 177 208 
          208 177 178 209 
          209 178 179 210 
          210 179 180 211 
          211 180 181 212 
          212 181 182 213 
          213 182 183 214 
          214 183 184 215 
          215 184 185 216 
          217 186 187 218 
          218 187 188 219 
          219 188 189 220 
          220 189 190 221 
          221 190 191 222 
          222 191 192 223 
          223 192 193 224 
          224 193 194 225 
          225 194 195 226 
          226 195 196 227 
          227 196 197 228 
          228 197 198 229 
          229 198 199 230 
          230 199 200 231 
          231 200 201 232 
          232 201 202 233 
          233 202 203 234 
          234 203 204 235 
          235 204 205 236 
          236 205 206 237 
          237 206 207 238 
          238 207 208 239 
          239 208 209 240 
          240 209 210 241 
          241 210 211 242 
          242 211 212 243 
          243 212 213 244 
          244 213 214 245 
          245 214 215 246 
          246 215 216 247 
          248 217 218 249 
          249 218 219 250 
          250 219 220 251 
          251 220 221 252 
          252 221 222 253 
          253 222 223 254 
          254 223 224 255 
          255 224 225 256 
          256 225 226 257 
          257 226 227 258 
          258 227 228 259 
          259 228 229 260 
          260 229 230 261 
          261 230 231 262 
          262 231 232 263 
          263 232 233 264 
          264 233 234 265 
          265 234 235 266 
          266 235 236 267 
          267 236 237 268 
          268 237 238 269 
          269 238 239 270 
          270 239 240 271 
          271 240 241 272 
          272 241 242 273 
          273 242 243 274 
          274 243 244 275 
          275 244 245 276 
          276 245 246 277 
          277 246 247 278 
          279 248 249 280 
          280 249 250 281 
          281 250 251 282 
          282 251 252 283 
          283 252 253 284 
          284 253 254 285 
          285 254 255 286 
          286 255 256 287 
          287 256 257 288 
          288 257 258 289 
          289 258 259 290 
          290 259 260 291 
          291 260 261 292 
          292 261 262 293 
          293 262 263 294 
          294 263 264 295 
          295 264 265 296 
          296 265 266 297 
          297 266 267 298 
          298 267 268 299 
          299 268 269 300 
          300 269 270 301 
          301 270 271 302 
          302 271 272 303 
          303 272 273 304 
          304 273 274 305 
          305 274 275 306 
          306 275 276 307 
          307 276 277 308 
          308 277 278 309 
          310 279 280 311 
          311 280 281 312 
          312 281 282 313 
          313 282 283 314 
          314 283 284 315 
          315 284 285 316 
          316 285 286 317 
          317 286 287 318 
          318 287 288 319 
          319 288 289 320 
          320 289 290 321 
          321 290 291 322 
          322 291 292 323 
          323 292 293 324 
          324 293 294 325 
          325 294 295 326 
          326 295 296 327 
          327 296 297 328 
          328 297 298 329 
          329 298 299 330 
          330 299 300 331 
          331 300 301 332 
          332 301 302 333 
          333 302 303 334 
          334 303 304 335 
          335 304 305 336 
          336 305 306 337 
          337 306 307 338 
          338 307 308 339 
          339 308 309 340 
          341 310 311 342 
          342 311 312 343 
          343 312 313 344 
          344 313 314 345 
          345 314 315 346 
          346 315 316 347 
          347 316 317 348 
          348 317 318 349 
          349 318 319 350 
          350 319 320 351 
          351 320 321 352 
          352 321 322 353 
          353 322 323 354 
          354 323 324 355 
          355 324 325 356 
          356 325 326 357 
          357 326 327 358 
          358 327 328 359 
          359 328 329 360 
          360 329 330 361 
          361 330 331 362 
          362 331 332 363 
          363 332 333 364 
          364 333 334 365 
          365 334 335 366 
          366 335 336 367 
          367 336 337 368 
          368 337 338 369 
          369 338 339 370 
          370 339 340 371 
          372 341 342 373 
          373 342 343 374 
          374 343 344 375 
          375 344 345 376 
          376 345 346 377 
          377 346 347 378 
          378 347 348 379 
          379 348 349 380 
          380 349 350 381 
          381 350 351 382 
          382 351 352 383 
          383 352 353 384 
          384 353 354 385 
          385 354 355 386 
          386 355 356 387 
          387 356 357 388 
          388 357 358 389 
          389 358 359 390 
          390 359 360 391 
          391 360 361 392 
          392 361 362 393 
          393 362 363 394 
          394 363 364 395 
          395 364 365 396 
          396 365 366 397 
          397 366 367 398 
          398 367 368 399 
          399 368 369 400 
          400 369 370 401 
          401 370 371 402 
          403 372 373 404 
          404 373 374 405 
          405 374 375 406 
          406 375 376 407 
          407 376 377 408 
          408 377 378 409 
          409 378 379 410 
          410 379 380 411 
          411 380 381 412 
          412 381 382 413 
          413 382 383 414 
          414 383 384 415 
          415 384 385 416 
          416 385 386 417 
          417 386 387 418 
          418 387 388 419 
          419 388 389 420 
          420 389 390 421 
          421 390 391 422 
          422 391 392 423 
          423 392 393 424 
          424 393 394 425 
          425 394 395 426 
          426 395 396 427 
          427 396 397 428 
          428 397 398 429 
          429 398 399 430 
          430 399 400 431 
          431 400 401 432 
          432 401 402 433 
          434 403 404 435 
          435 404 405 436 
          436 405 406 437 
          437 406 407 438 
          438 407 408 439 
          439 408 409 440 
          440 409 410 441 
          441 410 411 442 
          442 411 412 443 
          443 412 413 444 
          444 413 414 445 
          445 414 415 446 
          446 415 416 447 
          447 416 417 448 
          448 417 418 449 
          449 418 419 450 
          450 419 420 451 
          451 420 421 452 
          452 421 422 453 
          453 422 423 454 
          454 423 424 455 
          455 424 425 456 
          456 425 426 457 
          457 426 427 458 
          458 427 428 459 
          459 428 429 460 
          460 429 430 461 
          461 430 431 462 
          462 431 432 463 
          463 432 433 464 
          465 434 435 466 
          466 435 436 467 
          467 436 437 468 
          468 437 438 469 
          469 438 439 470 
          470 439 440 471 
          471 440 441 472 
          472 441 442 473 
          473 442 443 474 
          474 443 444 475 
          475 444 445 476 
          476 445 446 477 
          477 446 447 478 
          478 447 448 479 
          479 448 449 480 
          480 449 450 481 
          481 450 451 482 
          482 451 452 483 
          483 452 453 484 
          484 453 454 485 
          485 454 455 486 
          486 455 456 487 
          487 456 457 488 
          488 457 458 489 
          489 458 459 490 
          490 459 460 491 
          491 460 461 492 
          492 461 462 493 
          493 462 463 494 
          494 463 464 495 
          496 465 466 497 
          497 466 467 498 
          498 467 468 499 
          499 468 469 500 
          500 469 470 501 
          501 470 471 502 
          502 471 472 503 
          503 472 473 504 
          504 473 474 505 
          505 474 475 506 
          506 475 476 507 
          507 476 477 508 
          508 477 478 509 
          509 478 479 510 
          510 479 480 511 
          511 480 481 512 
          512 481 482 513 
          513 482 483 514 
          514 483 484 515 
          515 484 485 516 
          516 485 486 517 
          517 486 487 518 
          518 487 488 519 
          519 488 489 520 
          520 489 490 521 
          521 490 491 522 
          522 491 492 523 
          523 492 493 524 
          524 493 494 525 
          525 494 495 526 
        </DataArray>
        <DataArray type="Int64" Name="offsets" format="ascii">
          4 8 12 16 20 24 28 32 36 40 44 48 52 56 60 64 68 72 76 80 84 88 92 96 100 104 108 112 116 120 124 128 132 136 140 144 148 152 156 160 164 168 172 176 180 184 188 192 196 200 204 208 212 216 220 224 228 232 236 240 244 248 252 256 260 264 268 272 276 280 284 288 292 296 300 304 308 312 316 320 324 328 332 336 340 344 348 352 356 360 364 368 372 376 380 384 388 392 396 400 404 408 412 416 420 424 428 432 436 440 444 448 452 456 460 464 468 472 476 480 484 488 492 496 500 504 508 512 516 520 524 528 532 536 540 544 548 552 556 560 564 568 572 576 580 584 588 592 596 600 604 608 612 616 620 624 628 632 636 640 644 648 652 656 660 664 668 672 676 680 684 688 692 696 700 704 708 712 716 720 724 728 732 736 740 744 748 752 756 760 764 768 772 776 780 784 788 792 796 800 804 808 812 816 820 824 828 832 836 840 844 848 852 856 860 864 868 872 876 880 884 888 892 896 900 904 908 912 916 920 924 928 932 936 940 944 948 952 956 960 964 968 972 976 980 984 988 992 996 1000 1004 1008 1012 1016 1020 1024 1028 1032 1036 1040 1044 1048 1052 1056 1060 1064 1068 1072 1076 1080 1084 1088 1092 1096 1100 1104 1108 1112 1116 1120 1124 1128 1132 1136 1140 1144 1148 1152 1156 1160 1164 1168 1172 1176 1180 1184 1188 1192 1196 1200 1204 1208 1212 1216 1220 1224 1228 1232 1236 1240 1244 1248 1252 1256 1260 1264 1268 1272 1276 1280 1284 1288 1292 1296 1300 1304 1308 1312 1316 1320 1324 1328 1332 1336 1340 1344 1348 1352 1356 1360 1364 1368 1372 1376 1380 1384 1388 1392 1396 1400 1404 1408 1412 1416 1420 1424 1428 1432 1436 1440 1444 1448 1452 1456 1460 1464 1468 1472 1476 1480 1484 1488 1492 1496 1500 1504 1508 1512 1516 1520 1524 1528 1532 1536 1540 1544 1548 1552 1556 1560 1564 1568 1572 1576 1580 1584 1588 1592 1596 1600 1604 1608 1612 1616 1620 1624 1628 1632 1636 1640 1644 1648 1652 1656 1660 1664 1668 1672 1676 1680 1684 1688 1692 1696 1700 1704 1708 1712 1716 1720 1724 1728 1732 1736 1740 1744 1748 1752 1756 1760 1764 1768 1772 1776 1780 1784 1788 1792 1796 1800 1804 1808 1812 1816 1820 1824 1828 1832 1836 1840 1844 1848 1852 1856 1860 1864 1868 1872 1876 1880 1884 1888 1892 1896 1900 1904 1908 1912 1916 1920 
        </DataArray>
        <DataArray type="UInt8" Name="types" format="ascii">
          9 9 9 9 9 9 9 9 9 9 9 9 9 9 9 9 9 9 9 9 9 9 9 9 9 9 9 9 9 9 9 9 9 9 9 9 9 9 9 9 9 9 9 9 9 9 9 9 9 9 9 9 9 9 9 9 9 9 9 9 9 9 9 9 9 9 9 9 9 9 9 9 9 9 9 9 9 9 9 9 9 9 9 9 9 9 9 9 9 9 9 9 9 9 9 9 9 9 9 9 9 9 9 9 9 9 9 9 9 9 9 9 9 9 9 9 9 9 9 9 9 9 9 9 9 9 9 9 9 9 9 9 9 9 9 9 9 9 9 9 9 9 9 9 9 9 9 9 9 9 9 9 9 9 9 9 9 9 9 9 9 9 9 9 9 9 9 9 9 9 9 9 9 9 9 9 9 9 9 9 9 9 9 9 9 9 9 9 9 9 9 9 9 9 9 9 9 9 9 9 9 9 9 9 9 9 9 9 9 9 9 9 9 9 9 9 9 9 9 9 9 9 9 9 9 9 9 9 9 9 9 9 9 9 9 9 9 9 9 9 9 9 9 9 9 9 9 9 9 9 9 9 9 9 9 9 9 9 9 9 9 9 9 9 9 9 9 9 9 9 9 9 9 9 9 9 9 9 9 9 9 9 9 9 9 9 9 9 9 9 9 9 9 9 9 9 9 9 9 9 9 9 9 9 9 9 9 9 9 9 9 9 9 9 9 9 9 9 9 9 9 9 9 9 9 9 9 9 9 9 9 9 9 9 9 9 9 9 9 9 9 9 9 9 9 9 9 9 9 9 9 9 9 9 9 9 9 9 9 9 9 9 9 9 9 9 9 9 9 9 9 9 9 9 9 9 9 9 9 9 9 9 9 9 9 9 9 9 9 9 9 9 9 9 9 9 9 9 9 9 9 9 9 9 9 9 9 9 9 9 9 9 9 9 9 9 9 9 9 9 9 9 9 9 9 9 9 9 9 9 9 9 9 9 9 9 9 9 9 9 9 9 9 9 9 9 9 9 9 9 9 9 9 9 9 9 9 9 9 9 9 9 9 9 9 9 9 9 9 9 9 9 9 9 9 9 9 9 9 9 
        </DataArray>
      </Cells>
      <PointData Scalars="DISPLACEMENT_X1">
        <DataArray type="Float64" Name="STRESS_1" format="ascii">
          3.767622316440e-03 -1.086470280122e+00 -2.043812555153e+00 -2.873069662452e+00 -3.578927412289e+00 -4.166076548271e+00 -4.639103263886e+00 -5.002871647503e+00 -5.262315593677e+00 -5.422130995746e+00 -5.487053520656e+00 -8.975315751363e-01 4.176389324926e+00 9.192022853348e+00 1.411125939727e+01 1.884174533128e+01 1.850812737284e+01 1.831747360816e+01 1.813418200314e+01 1.795760714183e+01 1.778723247610e+01 1.762263383743e+01 1.746345146342e+01 1.730937250124e+01 1.716011814046e+01 1.701543280741e+01 1.687507312628e+01 1.673879681860e+01 1.660633477534e+01 1.647731410132e+01 1.635097699827e+01 3.480659363961e-03 -1.086678273764e+00 -2.043936400754e+00 -2.873138907825e+00 -3.578963287362e+00 -4.166094480352e+00 -4.639112619905e+00 -5.002875996113e+00 -5.262318889716e+00 -5.422140261431e+00 -5.487218333339e+00 -8.975715997467e-01 4.176359105836e+00 9.191991173329e+00 1.411122036984e+01 1.884168923318e+01 1.850809688421e+01 1.831745724650e+01 1.813417294219e+01 1.795760201821e+01 1.778723019760e+01 1.762263332001e+01 1.746345160652e+01 1.730937342289e+01 1.716011998184e+01 1.701543464097e+01 1.687507506563e+01 1.673879863647e+01 1.660633434236e+01 1.647730802795e+01 1.635095569711e+01 3.563903356749e-03 -1.086705153292e+00 -2.043961181267e+00 -2.873156615315e+00 -3.578978159294e+00 -4.166106849818e+00 -4.639124047107e+00 -5.002886910334e+00 -5.262330122095e+00 -5.422150211637e+00 -5.487228717036e+00 -8.975792608744e-01 4.176353554993e+00 9.191988641967e+00 1.411121957641e+01 1.884168325509e+01 1.850808598695e+01 1.831744960838e+01 1.813416711745e+01 1.795759927791e+01 1.778722897029e+01 1.762263480432e+01 1.746345444572e+01 1.730937875200e+01 1.716012615037e+01 1.701544316054e+01 1.687508428442e+01 1.673880848563e+01 1.660634136703e+01 1.647730458337e+01 1.635091130303e+01 3.710091364226e-03 -1.086752006314e+00 -2.044004448742e+00 -2.873189647681e+00 -3.579003152656e+00 -4.166129609460e+00 -4.639144852795e+00 -5.002906802719e+00 -5.262348568665e+00 -5.422170092130e+00 -5.487245838887e+00 -8.975949055939e-01 4.176342920178e+00 9.191981642018e+00 1.411121799294e+01 1.884167170884e+01 1.850806910428e+01 1.831743596156e+01 1.813415900554e+01 1.795759415647e+01 1.778722902511e+01 1.762263709463e+01 1.746346167612e+01 1.730938805064e+01 1.716013945179e+01 1.701545812103e+01 1.687510219351e+01 1.673882565603e+01 1.660635510995e+01 1.647729856735e+01 1.635083442422e+01 3.932000485138e-03 -1.086824490313e+00 -2.044071179452e+00 -2.873238397408e+00 -3.579043230360e+00 -4.166165019018e+00 -4.639177483801e+00 -5.002938757758e+00 -5.262379538807e+00 -5.422198915696e+00 -5.487274395425e+00 -8.976216508338e-01 4.176323291695e+00 9.191969560622e+00 1.411121223852e+01 1.884165727184e+01 1.850804626579e+01 1.831741994777e+01 1.813414920171e+01 1.795759094710e+01 1.778723104090e+01 1.762264484222e+01 1.746347392972e+01 1.730940489186e+01 1.716016009383e+01 1.701548252565e+01 1.687512916245e+01 1.673885308574e+01 1.660637585194e+01 1.647729002391e+01 1.635071779820e+01 4.249963100097e-03 -1.086927693849e+00 -2.044167245996e+00 -2.873309999382e+00 -3.579101708126e+00 -4.166215663894e+00 -4.639225451563e+00 -5.002983104590e+00 -5.262423891187e+00 -5.422241586871e+00 -5.487317740777e+00 -8.976592772180e-01 4.176296586296e+00 9.191955294623e+00 1.411120729747e+01 1.884164693124e+01 1.850802477750e+01 1.831740658308e+01 1.813414264419e+01 1.795759172705e+01 1.778723741249e+01 1.762265851232e+01 1.746349229824e+01 1.730942991201e+01 1.716018991321e+01 1.701551743395e+01 1.687516605558e+01 1.673889095219e+01 1.660640212142e+01 1.647727408924e+01 1.635054535798e+01 4.698602730976e-03 -1.087075825218e+00 -2.044302150799e+00 -2.873409158730e+00 -3.579179137640e+00 -4.166283788838e+00 -4.639287172569e+00 -5.003043740524e+00 -5.262481599972e+00 -5.422298329425e+00 -5.487368098423e+00 -8.977031513606e-01 4.176271238448e+00 9.191945824316e+00 1.411120890377e+01 1.884162114370e+01 1.850797914080e+01 1.831737091073e+01 1.813412063058e+01 1.795758222899e+01 1.778724137746e+01 1.762267189753e+01 1.746351748451e+01 1.730946341836e+01 1.716023203601e+01 1.701556594527e+01 1.687522096303e+01 1.673894467758e+01 1.660644328741e+01 1.647725541698e+01 1.635030654823e+01 5.331610378633e-03 -1.087290313539e+00 -2.044507881825e+00 -2.873572781996e+00 -3.579320292427e+00 -4.166412355935e+00 -4.639407292608e+00 -5.003152491692e+00 -5.262578030061e+00 -5.422381568552e+00 -5.487440861570e+00 -8.977772685357e-01 4.176219439933e+00 9.191898777337e+00 1.411115857679e+01 1.884160898160e+01 1.850794131835e+01 1.831732950729e+01 1.813408214401e+01 1.795755369183e+01 1.778722696166e+01 1.762267488785e+01 1.746353739296e+01 1.730950118180e+01 1.716028706827e+01 1.701563675065e+01 1.687530464513e+01 1.673903525463e+01 1.660651909080e+01 1.647725111305e+01 1.634999264276e+01 6.243420484122e-03 -1.087583745130e+00 -2.044759956260e+00 -2.873741487623e+00 -3.579446089616e+00 -4.166519090790e+00 -4.639511856923e+00 -5.003267581032e+00 -5.262711629174e+00 -5.422537445725e+00 -5.487624266714e+00 -8.980966461220e-01 4.175913882941e+00 9.191686814857e+00 1.411092976593e+01 1.884244502773e+01 1.850757647664e+01 1.831716193053e+01 1.813403400529e+01 1.795757838125e+01 1.778729357811e+01 1.762276716166e+01 1.746364283316e+01 1.730961333703e+01 1.716040030067e+01 1.701574940090e+01 1.687541106964e+01 1.673912853642e+01 1.660657252626e+01 1.647717750285e+01 1.634946555360e+01 7.596512713700e-03 -1.088052983182e+00 -2.045197676830e+00 -2.874084907910e+00 -3.579733898825e+00 -4.166774430143e+00 -4.639740084321e+00 -5.003469894084e+00 -5.262883053045e+00 -5.422676021001e+00 -5.487722701354e+00 -8.979822080548e-01 4.176088072066e+00 9.191856614695e+00 1.411425680263e+01 1.883465564893e+01 1.850875860898e+01 1.831801322530e+01 1.813466695665e+01 1.795805806511e+01 1.778766530563e+01 1.762305663541e+01 1.746387019073e+01 1.730978862854e+01 1.716053259003e+01 1.701583885452e+01 1.687545769227e+01 1.673911747113e+01 1.660646117329e+01 1.647682293027e+01 1.634836666565e+01 9.709562271887e-03 -1.088772454365e+00 -2.045820560055e+00 -2.874543659558e+00 -3.580116248934e+00 -4.167120180828e+00 -4.640069051140e+00 -5.003791177144e+00 -5.263207575720e+00 -5.422999500250e+00 -5.488036115405e+00 -8.981378701850e-01 4.176027560543e+00 9.191924100547e+00 1.411446610707e+01 1.883447013649e+01 1.850854036490e+01 1.831790392943e+01 1.813464243010e+01 1.795809625823e+01 1.778774189005e+01 1.762315483504e+01 1.746397648665e+01 1.730989569590e+01 1.716063103001e+01 1.701592580454e+01 1.687552340464e+01 1.673914328525e+01 1.660638561176e+01 1.647643891031e+01 1.634688660565e+01 1.324962289937e-02 -1.090044030503e+00 -2.046842808505e+00 -2.875228729387e+00 -3.580686228320e+00 -4.167652231901e+00 -4.640557706946e+00 -5.004229742378e+00 -5.263606450862e+00 -5.423390282431e+00 -5.488447839807e+00 -8.983672838473e-01 4.175841120664e+00 9.191797627138e+00 1.411448200777e+01 1.883461687420e+01 1.850892219839e+01 1.831823065466e+01 1.813490772915e+01 1.795829979231e+01 1.778789173221e+01 1.762325775567e+01 1.746403939998e+01 1.730992150024e+01 1.716062161184e+01 1.701587666471e+01 1.687542509647e+01 1.673896387590e+01 1.660602397449e+01 1.647553168182e+01 1.634405909687e+01 2.002728048474e-02 -1.092581808602e+00 -2.048859999493e+00 -2.876298230196e+00 -3.581459875402e+00 -4.168620785156e+00 -4.641858545169e+00 -5.005747175994e+00 -5.265126187420e+00 -5.424722723111e+00 -5.489498548072e+00 -8.984542739344e-01 4.175667008630e+00 9.191529809889e+00 1.411419266497e+01 1.883425547136e+01 1.850917727093e+01 1.831876272091e+01 1.813561597125e+01 1.795907660350e+01 1.778864138379e+01 1.762390540371e+01 1.746452618748e+01 1.731020684273e+01 1.716067980763e+01 1.701569345917e+01 1.687499276352e+01 1.673825810762e+01 1.660489053087e+01 1.647330079599e+01 1.633812674235e+01 3.617107106184e-02 -1.098700476000e+00 -2.055929469687e+00 -2.880828365027e+00 -3.582917354769e+00 -4.167936883585e+00 -4.640507284199e+00 -5.005071107134e+00 -5.265976907729e+00 -5.427374852533e+00 -5.493693962657e+00 -8.986865809751e-01 4.176898725327e+00 9.194230376709e+00 1.411805641814e+01 1.884392832736e+01 1.852017316131e+01 1.832698992140e+01 1.814151365265e+01 1.796306044820e+01 1.779107093958e+01 1.762506949595e+01 1.746464381356e+01 1.730943418615e+01 1.715912455634e+01 1.701342649891e+01 1.687204045819e+01 1.673451662799e+01 1.659981813003e+01 1.646502308338e+01 1.632083640152e+01 9.529828177201e-02 -1.097257131678e+00 -2.069444795062e+00 -2.903723162913e+00 -3.609009131576e+00 -4.190840831393e+00 -4.655372549784e+00 -5.009379906688e+00 -5.259437560042e+00 -5.411352153153e+00 -5.469671940590e+00 -8.635961767862e-01 4.206018049688e+00 9.216649302329e+00 1.413480620922e+01 1.882978474000e+01 1.849133768937e+01 1.830246191541e+01 1.812107153110e+01 1.794629647659e+01 1.777754810930e+01 1.761440470142e+01 1.745654700175e+01 1.730371359334e+01 1.715566036408e+01 1.701208614806e+01 1.687246780250e+01 1.673568395409e+01 1.659911910087e+01 1.645653571650e+01 1.629385500746e+01 1.309742041633e-01 -1.133468656234e+00 -2.093417344041e+00 -2.914979936565e+00 -3.623039807356e+00 -4.221927156589e+00 -4.711371363928e+00 -5.091567428210e+00 -5.364310999260e+00 -5.532810823582e+00 -5.599643874151e+00 -8.900175707661e-01 4.139779791659e+00 9.118944276453e+00 1.404588117147e+01 1.877851690924e+01 1.849422670551e+01 1.830962716645e+01 1.813061452348e+01 1.795696561223e+01 1.778847404637e+01 1.762488799907e+01 1.746587268502e+01 1.731097455927e+01 1.715955543491e+01 1.701068456815e+01 1.686295709265e+01 1.671417924190e+01 1.656085919485e+01 1.639756151862e+01 1.621725638220e+01 1.603244683773e+00 -4.051240228904e-02 -1.323204007362e+00 -2.379293915908e+00 -3.186532607772e+00 -3.789828563179e+00 -4.235772868048e+00 -4.558706519996e+00 -4.781185532176e+00 -4.915283923240e+00 -4.965877122710e+00 -9.558018419748e-01 4.191232559430e+00 9.260059843392e+00 1.421865894820e+01 1.900187945946e+01 1.870522538154e+01 1.848237035367e+01 1.827690182115e+01 1.808578832068e+01 1.790690172730e+01 1.773884744026e+01 1.758084653438e+01 1.743268938993e+01 1.729486498716e+01 1.716869164857e+01 1.705667786758e+01 1.696365692189e+01 1.689895150848e+01 1.688162260787e+01 1.694757735154e+01 
        </DataArray>
        <DataArray type="Float64" Name="STRESS_2" format="ascii">
          -6.365899693771e+01 -5.731696766059e+01 -5.113521066606e+01 -4.509409000823e+01 -3.918336719421e+01 -3.339495918135e+01 -2.772187860230e+01 -2.215828105183e+01 -1.669918919585e+01 -1.133996039413e+01 -6.076500874725e+00 -9.070727148805e-01 4.157075879180e+00 9.163097406474e+00 1.407290618502e+01 1.879430305218e+01 1.846289964844e+01 1.827388324324e+01 1.809202364462e+01 1.791672696839e+01 1.774751173736e+01 1.758397766124e+01 1.742578135616e+01 1.727262079254e+01 1.712422403131e+01 1.698033973609e+01 1.684072803022e+01 1.670515427444e+01 1.657337819155e+01 1.644513133807e+01 1.632007155767e+01 -6.365903838900e+01 -5.731696759598e+01 -5.113520253005e+01 -4.509408015330e+01 -3.918335717098e+01 -3.339494977486e+01 -2.772186993187e+01 -2.215827223597e+01 -1.669918007816e+01 -1.133995132184e+01 -6.076491820149e+00 -9.070636675009e-01 4.157084748819e+00 9.163106413877e+00 1.407291572930e+01 1.879431056485e+01 1.846290518885e+01 1.827388904845e+01 1.809202942776e+01 1.791673282400e+01 1.774751820811e+01 1.758398454368e+01 1.742578794771e+01 1.727262751185e+01 1.712423131832e+01 1.698034680557e+01 1.684073506205e+01 1.670516150647e+01 1.657338442014e+01 1.644513521948e+01 1.632006864067e+01 -6.365916786701e+01 -5.731696945050e+01 -5.113517896502e+01 -4.509405076375e+01 -3.918332841233e+01 -3.339492197081e+01 -2.772184321475e+01 -2.215824625843e+01 -1.669915478914e+01 -1.133992552355e+01 -6.076466175974e+00 -9.070371498752e-01 4.157111557529e+00 9.163134396089e+00 1.407294372769e+01 1.879433237141e+01 1.846292058858e+01 1.827390606570e+01 1.809204651577e+01 1.791675138140e+01 1.774753674356e+01 1.758400434324e+01 1.742580771347e+01 1.727264844247e+01 1.712425169571e+01 1.698036826003e+01 1.684075610107e+01 1.670518244024e+01 1.657340293720e+01 1.644514755009e+01 1.632005820400e+01 -6.365940056999e+01 -5.731697776778e+01 -5.113514266401e+01 -4.509400528624e+01 -3.918328222213e+01 -3.339487834238e+01 -2.772180126844e+01 -2.215820553289e+01 -1.669911409804e+01 -1.133988575398e+01 -6.076424711334e+00 -9.069956106101e-01 4.157154944458e+00 9.163178077922e+00 1.407298967892e+01 1.879436637763e+01 1.846294655827e+01 1.827393217225e+01 1.809207522443e+01 1.791678019581e+01 1.774756799242e+01 1.758403516249e+01 1.742584098947e+01 1.727268133339e+01 1.712428627318e+01 1.698040225514e+01 1.684079106725e+01 1.670521533479e+01 1.657343315127e+01 1.644516544020e+01 1.632003717020e+01 -6.365976339861e+01 -5.731700149620e+01 -5.113509881748e+01 -4.509394634205e+01 -3.918322425692e+01 -3.339482365404e+01 -2.772174901858e+01 -2.215815528198e+01 -1.669906427149e+01 -1.133983476240e+01 -6.076373153550e+00 -9.069430834778e-01 4.157209362974e+00 9.163234909368e+00 1.407304783648e+01 1.879441249342e+01 1.846298007634e+01 1.827396779344e+01 1.809211249121e+01 1.791681978475e+01 1.774760882284e+01 1.758407791367e+01 1.742588456901e+01 1.727272601182e+01 1.712433143361e+01 1.698044802583e+01 1.684083654908e+01 1.670525928419e+01 1.657347146958e+01 1.644518577771e+01 1.631999794597e+01 -6.366029994576e+01 -5.731705239831e+01 -5.113505422789e+01 -4.509388066396e+01 -3.918315885387e+01 -3.339476163137e+01 -2.772169096936e+01 -2.215809899909e+01 -1.669901027037e+01 -1.133978134438e+01 -6.076320672307e+00 -9.068883918610e-01 4.157267634622e+00 9.163299195498e+00 1.407311412493e+01 1.879446934820e+01 1.846302203013e+01 1.827401269037e+01 1.809215891196e+01 1.791686840946e+01 1.774765797140e+01 1.758412951243e+01 1.742593605064e+01 1.727277944437e+01 1.712438500434e+01 1.698050222929e+01 1.684088873839e+01 1.670530992387e+01 1.657351240466e+01 1.644520111557e+01 1.631992692912e+01 -6.366105720553e+01 -5.731712992717e+01 -5.113499926670e+01 -4.509379917465e+01 -3.918308060725e+01 -3.339469402373e+01 -2.772163190823e+01 -2.215804717620e+01 -1.669895964713e+01 -1.133972731698e+01 -6.076254993742e+00 -9.068080343858e-01 4.157365478424e+00 9.163405031913e+00 1.407321468185e+01 1.879453639658e+01 1.846306476172e+01 1.827405630844e+01 1.809220572095e+01 1.791691732470e+01 1.774771055741e+01 1.758418229890e+01 1.742599212413e+01 1.727283577211e+01 1.712444240355e+01 1.698055893140e+01 1.684094549540e+01 1.670536106808e+01 1.657355278637e+01 1.644520410152e+01 1.631980833615e+01 -6.366237571221e+01 -5.731745690721e+01 -5.113510658795e+01 -4.509383187369e+01 -3.918307828370e+01 -3.339466130614e+01 -2.772156605494e+01 -2.215794407315e+01 -1.669882038012e+01 -1.133955916049e+01 -6.076074408166e+00 -9.066385384512e-01 4.157495167167e+00 9.163468445684e+00 1.407322592356e+01 1.879459576336e+01 1.846310167261e+01 1.827409382317e+01 1.809224389503e+01 1.791695725922e+01 1.774775250815e+01 1.758422752406e+01 1.742603912715e+01 1.727288523515e+01 1.712449392264e+01 1.698061150891e+01 1.684099736886e+01 1.670540912300e+01 1.657358442799e+01 1.644518411307e+01 1.631961694930e+01 -6.366420591646e+01 -5.731792303502e+01 -5.113531634814e+01 -4.509400090430e+01 -3.918327703851e+01 -3.339490856222e+01 -2.772186775681e+01 -2.215830097047e+01 -1.669922588205e+01 -1.133999752784e+01 -6.076519700800e+00 -9.070412016810e-01 4.157215103510e+00 9.163446674564e+00 1.407340361124e+01 1.879594535076e+01 1.846297263849e+01 1.827401598650e+01 1.809220025573e+01 1.791693737414e+01 1.774774697334e+01 1.758423270599e+01 1.742604994277e+01 1.727289955239e+01 1.712450811323e+01 1.698062477795e+01 1.684100459172e+01 1.670540543757e+01 1.657355298363e+01 1.644507616041e+01 1.631925831323e+01 -6.366670753754e+01 -5.731842977038e+01 -5.113544665116e+01 -4.509404830772e+01 -3.918331750127e+01 -3.339494894185e+01 -2.772190003978e+01 -2.215832084270e+01 -1.669923259956e+01 -1.134000107125e+01 -6.076539226224e+00 -9.071175851901e-01 4.157009154990e+00 9.162993822456e+00 1.407579582224e+01 1.878701124369e+01 1.846341908461e+01 1.827435798008e+01 1.809246476636e+01 1.791713891241e+01 1.774789968416e+01 1.758434246993e+01 1.742612434058e+01 1.727294069620e+01 1.712452045494e+01 1.698060628613e+01 1.684095603440e+01 1.670531800597e+01 1.657340424110e+01 1.644478874082e+01 1.631857431566e+01 -6.367107400570e+01 -5.731970171604e+01 -5.113612323729e+01 -4.509459162233e+01 -3.918388372994e+01 -3.339555323709e+01 -2.772252168708e+01 -2.215893584806e+01 -1.669982066593e+01 -1.134053059000e+01 -6.076969538906e+00 -9.073991047246e-01 4.156924915991e+00 9.163138712009e+00 1.407615334990e+01 1.878700054698e+01 1.846327133538e+01 1.827422499729e+01 1.809234560898e+01 1.791703446136e+01 1.774780398641e+01 1.758425260311e+01 1.742603616079e+01 1.727285268199e+01 1.712442681516e+01 1.698050631104e+01 1.684084175446e+01 1.670517677806e+01 1.657319847607e+01 1.644440347338e+01 1.631759963038e+01 -6.367827776011e+01 -5.732181245489e+01 -5.113719459713e+01 -4.509522177839e+01 -3.918442104915e+01 -3.339611252637e+01 -2.772308245533e+01 -2.215945926723e+01 -1.670030191752e+01 -1.134100509176e+01 -6.077483678663e+00 -9.079810319695e-01 4.156279049780e+00 9.162476210375e+00 1.407563204982e+01 1.878667654641e+01 1.846319064703e+01 1.827413251241e+01 1.809224266089e+01 1.791691774212e+01 1.774767453916e+01 1.758410921511e+01 1.742587907008e+01 1.727267982272e+01 1.712423643700e+01 1.698029224502e+01 1.684059609421e+01 1.670487702141e+01 1.657278431031e+01 1.644367530925e+01 1.631585803416e+01 -6.368982422824e+01 -5.732457482141e+01 -5.113915862467e+01 -4.509655432101e+01 -3.918553195461e+01 -3.339759705672e+01 -2.772521585211e+01 -2.216210129662e+01 -1.670307755990e+01 -1.134352145300e+01 -6.078237259864e+00 -9.093742245366e-01 4.155373009014e+00 9.161833237016e+00 1.407505715336e+01 1.878588397687e+01 1.846271353916e+01 1.827370646827e+01 1.809185979052e+01 1.791656271270e+01 1.774733086604e+01 1.758376418403e+01 1.742551844644e+01 1.727229189063e+01 1.712381061802e+01 1.697981649787e+01 1.684005311750e+01 1.670423169243e+01 1.657192394989e+01 1.644222527334e+01 1.631249859469e+01 -6.371634901498e+01 -5.732980668598e+01 -5.114594999607e+01 -4.510391344132e+01 -3.918954549692e+01 -3.339718659088e+01 -2.772184141858e+01 -2.215826795256e+01 -1.670105961180e+01 -1.134472910162e+01 -6.079686844991e+00 -9.173567296100e-01 4.145295924307e+00 9.151160374978e+00 1.406530954467e+01 1.878361279139e+01 1.846445664906e+01 1.827501861792e+01 1.809280946459e+01 1.791720274127e+01 1.774770218958e+01 1.758389611069e+01 1.742543084492e+01 1.727199512865e+01 1.712330738814e+01 1.697909997797e+01 1.683909771903e+01 1.670295122604e+01 1.657003648482e+01 1.643884296899e+01 1.630478367559e+01 -6.376936881470e+01 -5.728601959178e+01 -5.109604539305e+01 -4.508904685616e+01 -3.921082437973e+01 -3.344088005525e+01 -2.775288015356e+01 -2.216718950959e+01 -1.668928024968e+01 -1.131528444541e+01 -6.041970606406e+00 -8.970718005775e-01 4.176660324528e+00 9.188699012432e+00 1.410472353451e+01 1.879395100203e+01 1.845748200937e+01 1.826941675408e+01 1.808839598126e+01 1.791381925053e+01 1.774522299752e+01 1.758222805340e+01 1.742450883600e+01 1.727177260193e+01 1.712374644385e+01 1.698015280928e+01 1.684065065120e+01 1.670469006500e+01 1.657110812986e+01 1.643699759463e+01 1.629201712662e+01 -6.500181312927e+01 -5.769453857505e+01 -5.109936709677e+01 -4.490710673467e+01 -3.890754066694e+01 -3.310660132471e+01 -2.746081881579e+01 -2.194418968343e+01 -1.653869370694e+01 -1.123218572368e+01 -6.017064721048e+00 -9.754217288931e-01 4.097712536082e+00 9.116164444634e+00 1.401652979517e+01 1.872649521031e+01 1.843888458474e+01 1.825277641839e+01 1.807357996518e+01 1.790059086634e+01 1.773332274414e+01 1.757139073533e+01 1.741445305939e+01 1.726217245714e+01 1.711416106082e+01 1.696989226193e+01 1.682852487783e+01 1.668849732331e+01 1.654655654577e+01 1.639534518614e+01 1.621554648230e+01 -5.172442968457e+01 -5.477024594489e+01 -5.132102509350e+01 -4.615635078574e+01 -4.041071071136e+01 -3.450805259022e+01 -2.862449750584e+01 -2.283530292329e+01 -1.717064936866e+01 -1.163782831459e+01 -6.235153262520e+00 -9.565295799381e-01 4.189826864695e+00 9.258762724421e+00 1.421791095971e+01 1.900141958654e+01 1.870521293185e+01 1.848225150547e+01 1.827675162570e+01 1.808563139819e+01 1.790674805269e+01 1.773870623810e+01 1.758073428228e+01 1.743263781690e+01 1.729479624714e+01 1.716839027962e+01 1.705592730586e+01 1.696201981012e+01 1.689547657845e+01 1.687397815929e+01 1.692823509082e+01 
        </DataArray>
        <DataArray type="Float64" Name="STRESS_3" format="ascii">
          -6.379860914290e+01 -5.743528302076e+01 -5.123619417679e+01 -4.517968868529e+01 -3.925474035985e+01 -3.345299729065e+01 -2.776734247907e+01 -2.219178572875e+01 -1.672128201021e+01 -1.135114234761e+01 -6.077313385985e+00 -5.462295109526e+00 -5.351958221439e+00 -5.160769617293e+00 -4.893163920610e+00 -4.552265461478e+00 -4.181276249861e+00 -3.821270184386e+00 -3.470965378393e+00 -3.130527218128e+00 -2.799963461767e+00 -2.479177106723e+00 -2.168007292176e+00 -1.866255316282e+00 -1.573702772887e+00 -1.290126520825e+00 -1.015312332760e+00 -7.490601307428e-01 -4.911858685689e-01 -2.415083419485e-01 3.096483231295e-04 -6.379839497340e+01 -5.743511022904e+01 -5.123608839045e+01 -4.517963137099e+01 -3.925471374065e+01 -3.345298856958e+01 -2.776734306067e+01 -2.219178981578e+01 -1.672128544856e+01 -1.135113928125e+01 -6.077154253889e+00 -5.462260273437e+00 -5.351933385988e+00 -5.160742541651e+00 -4.893127626110e+00 -4.552212867546e+00 -4.181250359791e+00 -3.821257597207e+00 -3.470960085095e+00 -3.130525576991e+00 -2.799962826458e+00 -2.479176974757e+00 -2.168008560406e+00 -1.866256894716e+00 -1.573703545208e+00 -1.290127798280e+00 -1.015313680997e+00 -7.490605447123e-01 -4.911863255342e-01 -2.415081822427e-01 3.113096050414e-04 -6.379870508005e+01 -5.743519481564e+01 -5.123612060737e+01 -4.517965011050e+01 -3.925473025042e+01 -3.345300448293e+01 -2.776735867078e+01 -2.219180460792e+01 -1.672129940455e+01 -1.135115117341e+01 -6.077164580165e+00 -5.462269262015e+00 -5.351942642766e+00 -5.160750245213e+00 -4.893136007880e+00 -4.552218900490e+00 -4.181256254282e+00 -3.821261855179e+00 -3.470965698054e+00 -3.130529795267e+00 -2.799968315742e+00 -2.479181239169e+00 -2.168013939282e+00 -1.866261090615e+00 -1.573709800731e+00 -1.290132937012e+00 -1.015320231011e+00 -7.490672470029e-01 -4.911953072587e-01 -2.415191735930e-01 2.937700687478e-04 -6.379925471639e+01 -5.743534780276e+01 -5.123618166839e+01 -4.517968850146e+01 -3.925476266859e+01 -3.345303621527e+01 -2.776738937538e+01 -2.219183360987e+01 -1.672132554585e+01 -1.135117525576e+01 -6.077183773885e+00 -5.462286955507e+00 -5.351958215273e+00 -5.160766538295e+00 -4.893149476097e+00 -4.552232323035e+00 -4.181264803256e+00 -3.821272547845e+00 -3.470973829695e+00 -3.130539926081e+00 -2.799975948785e+00 -2.479191587883e+00 -2.168021449446e+00 -1.866271001817e+00 -1.573718116284e+00 -1.290143750641e+00 -1.015330243939e+00 -7.490809380201e-01 -4.912099459281e-01 -2.415400284724e-01 2.634919043669e-04 -6.380009987680e+01 -5.743559090032e+01 -5.123628417114e+01 -4.517975422849e+01 -3.925482043822e+01 -3.345309148631e+01 -2.776744210333e+01 -2.219188340577e+01 -1.672137101899e+01 -1.135121464726e+01 -6.077217239157e+00 -5.462314809107e+00 -5.351984879993e+00 -5.160791311632e+00 -4.893173963247e+00 -4.552251703516e+00 -4.181281286573e+00 -3.821288300630e+00 -3.470989619475e+00 -3.130554193979e+00 -2.799990393493e+00 -2.479204772697e+00 -2.168035266408e+00 -1.866284765414e+00 -1.573732796406e+00 -1.290158901753e+00 -1.015347025814e+00 -7.491000218379e-01 -4.912331995657e-01 -2.415711299499e-01 2.173939627044e-04 -6.380133216089e+01 -5.743595636309e+01 -5.123644702690e+01 -4.517986348677e+01 -3.925491609133e+01 -3.345318138016e+01 -2.776752768550e+01 -2.219196140147e+01 -1.672144104619e+01 -1.135127450813e+01 -6.077267029078e+00 -5.462355272010e+00 -5.352024084390e+00 -5.160826437109e+00 -4.893208271976e+00 -4.552278240616e+00 -4.181303490681e+00 -3.821307296437e+00 -3.471008338094e+00 -3.130571251949e+00 -2.800008849526e+00 -2.479220841912e+00 -2.168053714044e+00 -1.866301669202e+00 -1.573751507133e+00 -1.290178245433e+00 -1.015371170813e+00 -7.491255274146e-01 -4.912669673138e-01 -2.416150747728e-01 1.510386747183e-04 -6.380311593658e+01 -5.743651698975e+01 -5.123671563250e+01 -4.518004764048e+01 -3.925506992173e+01 -3.345331861819e+01 -2.776764907836e+01 -2.219206850322e+01 -1.672153295970e+01 -1.135135223744e+01 -6.077327672616e+00 -5.462400888066e+00 -5.352061581123e+00 -5.160859703168e+00 -4.893239516508e+00 -4.552305836274e+00 -4.181320045268e+00 -3.821326727631e+00 -3.471027838559e+00 -3.130592664553e+00 -2.800028567477e+00 -2.479244701716e+00 -2.168075299112e+00 -1.866326208484e+00 -1.573777011480e+00 -1.290207500218e+00 -1.015401675105e+00 -7.491643892217e-01 -4.913121918749e-01 -2.416774359362e-01 5.742634278416e-05 -6.380553532976e+01 -5.743723128437e+01 -5.123704842380e+01 -4.518029175755e+01 -3.925530183821e+01 -3.345355103776e+01 -2.776787781319e+01 -2.219228199456e+01 -1.672172071728e+01 -1.135150479240e+01 -6.077440100998e+00 -5.462467736145e+00 -5.352132904197e+00 -5.160942698943e+00 -4.893334062272e+00 -4.552383281877e+00 -4.181371592275e+00 -3.821363527484e+00 -3.471057287031e+00 -3.130618909683e+00 -2.800055011095e+00 -2.479270959315e+00 -2.168105069442e+00 -1.866358442100e+00 -1.573812247046e+00 -1.290246996057e+00 -1.015447036355e+00 -7.492164551866e-01 -4.913778304942e-01 -2.417666337658e-01 -7.501334943161e-05 -6.380909853648e+01 -5.743826916399e+01 -5.123747948609e+01 -4.518054809620e+01 -3.925551056471e+01 -3.345374804783e+01 -2.776807753300e+01 -2.219249496557e+01 -1.672195640379e+01 -1.135176997010e+01 -6.077738925671e+00 -5.462671853234e+00 -5.352347574104e+00 -5.161148345180e+00 -4.893487844547e+00 -4.552492860792e+00 -4.181582969570e+00 -3.821597960695e+00 -3.471286800630e+00 -3.130828770716e+00 -2.800243424122e+00 -2.479434120874e+00 -2.168246890076e+00 -1.866480125057e+00 -1.573919757778e+00 -1.290341674523e+00 -1.015537661769e+00 -7.493071956055e-01 -4.914793473642e-01 -2.418942630104e-01 -2.656478030492e-04 -6.381416209881e+01 -5.743972325452e+01 -5.123813136376e+01 -4.518099102166e+01 -3.925589304427e+01 -3.345409355403e+01 -2.776837549673e+01 -2.219272934861e+01 -1.672211095923e+01 -1.135183473798e+01 -6.077708560841e+00 -5.462733173000e+00 -5.352372892468e+00 -5.161149978448e+00 -4.893502993679e+00 -4.552544743205e+00 -4.181447645990e+00 -3.821421173441e+00 -3.471102657014e+00 -3.130660231176e+00 -2.800095146046e+00 -2.479314996232e+00 -2.168155486617e+00 -1.866420624819e+00 -1.573888590761e+00 -1.290344666593e+00 -1.015571516125e+00 -7.493778059246e-01 -4.915925689289e-01 -2.420749978620e-01 -5.529675306457e-04 -6.382198300805e+01 -5.744178040253e+01 -5.123887473165e+01 -4.518136809338e+01 -3.925618168707e+01 -3.345436735107e+01 -2.776865167856e+01 -2.219300756327e+01 -1.672238778472e+01 -1.135209519697e+01 -6.077931836369e+00 -5.463021977385e+00 -5.352621534199e+00 -5.161335442413e+00 -4.893633199887e+00 -4.552589180178e+00 -4.181531289290e+00 -3.821555494269e+00 -3.471270481130e+00 -3.130838130640e+00 -2.800275999877e+00 -2.479490389602e+00 -2.168323787801e+00 -1.866578925618e+00 -1.574044097727e+00 -1.290496208610e+00 -1.015730268522e+00 -7.495541642572e-01 -4.918079165633e-01 -2.423679907046e-01 -1.002125998795e-03 -6.383419723292e+01 -5.744457253766e+01 -5.123973677355e+01 -4.518174980132e+01 -3.925649521111e+01 -3.345470211076e+01 -2.776900101045e+01 -2.219335192996e+01 -1.672271165558e+01 -1.135239267775e+01 -6.078199484218e+00 -5.463469250209e+00 -5.353101057466e+00 -5.161829354722e+00 -4.894090625256e+00 -4.552938568805e+00 -4.181815740226e+00 -3.821799401034e+00 -3.471471202757e+00 -3.131008733093e+00 -2.800423936706e+00 -2.479627337377e+00 -2.168456764667e+00 -1.866716997748e+00 -1.574193815161e+00 -1.290669285915e+00 -1.015935632705e+00 -7.498112960370e-01 -4.921466973795e-01 -2.428592403746e-01 -1.766963927275e-03 -6.385696642594e+01 -5.744931691593e+01 -5.124096001329e+01 -4.518195429805e+01 -3.925639705053e+01 -3.345458247251e+01 -2.776894081255e+01 -2.219334399576e+01 -1.672272348445e+01 -1.135240748663e+01 -6.079476649736e+00 -5.464245972448e+00 -5.353691926435e+00 -5.162364466737e+00 -4.894705413533e+00 -4.553661510580e+00 -4.182658929810e+00 -3.822754636467e+00 -3.472463137632e+00 -3.131982318052e+00 -2.801342963875e+00 -2.480466560755e+00 -2.169209957874e+00 -1.867386230995e+00 -1.574788915779e+00 -1.291210352625e+00 -1.016455684391e+00 -7.503591304661e-01 -4.928104752615e-01 -2.437901116113e-01 -3.215766158450e-03 -6.390533842883e+01 -5.745574509659e+01 -5.124101916826e+01 -4.518178615874e+01 -3.925644540419e+01 -3.345501618642e+01 -2.777005116729e+01 -2.219515891296e+01 -1.672494282605e+01 -1.135451506508e+01 -6.084319039186e+00 -5.469493379598e+00 -5.359220253767e+00 -5.167428936874e+00 -4.898660915875e+00 -4.555785452908e+00 -4.182885325476e+00 -3.821837738235e+00 -3.470824524598e+00 -3.129971131736e+00 -2.799230266697e+00 -2.478453067936e+00 -2.167434907419e+00 -1.865942873525e+00 -1.573737934073e+00 -1.290598323832e+00 -1.016331592161e+00 -7.507938583934e-01 -4.939121834894e-01 -2.457363736175e-01 -6.430553936989e-03 -6.409832858823e+01 -5.750077350200e+01 -5.124859620857e+01 -4.518605434315e+01 -3.925857030832e+01 -3.344927257426e+01 -2.777221539479e+01 -2.220241536277e+01 -1.673100160676e+01 -1.135710233890e+01 -6.079110919266e+00 -5.442456640650e+00 -5.330680159717e+00 -5.139924040635e+00 -4.874350976325e+00 -4.536259456233e+00 -4.168975585696e+00 -3.812495738174e+00 -3.464952798302e+00 -3.126656462463e+00 -2.797746799340e+00 -2.478250244200e+00 -2.168126223431e+00 -1.867301720078e+00 -1.575684945818e+00 -1.293174826541e+00 -1.019664453398e+00 -7.550226616111e-01 -4.990898336757e-01 -2.518454392253e-01 -1.441603223644e-02 -6.512092157236e+01 -5.784900135872e+01 -5.117797101300e+01 -4.493015840562e+01 -3.902138535375e+01 -3.328462705172e+01 -2.767350161234e+01 -2.216276138052e+01 -1.674116679599e+01 -1.140380125370e+01 -6.150127611041e+00 -5.576840121969e+00 -5.462178506431e+00 -5.263887992075e+00 -4.986900179283e+00 -4.633054227923e+00 -4.247866417192e+00 -3.877982161537e+00 -3.520021010842e+00 -3.173815109821e+00 -2.839105916796e+00 -2.515581039452e+00 -2.202888784914e+00 -1.900629102992e+00 -1.608345661613e+00 -1.325490570948e+00 -1.051355458414e+00 -7.850006806134e-01 -5.252696950020e-01 -2.713134012566e-01 -2.610692884445e-02 -5.177785664893e+01 -5.478317565024e+01 -5.132492394524e+01 -4.616449467618e+01 -4.041811843900e+01 -3.451335506301e+01 -2.862751330817e+01 -2.283634101004e+01 -1.717108256609e+01 -1.163952650615e+01 -6.240339699637e+00 -4.947646821722e+00 -4.850496067276e+00 -4.683373358206e+00 -4.453214733352e+00 -4.168712748774e+00 -3.859465963453e+00 -3.544234089198e+00 -3.224512543160e+00 -2.904234654239e+00 -2.585394763106e+00 -2.269005600208e+00 -1.955553035925e+00 -1.645293015493e+00 -1.338535504616e+00 -1.036203653833e+00 -7.410007205574e-01 -4.601878532754e-01 -2.125051799439e-01 -4.610274731655e-02 -1.197973994391e-01 
        </DataArray>
        <DataArray type="Float64" Name="STRESS_XX" format="ascii">
          3.453644885005e-03 -1.086669676488e+00 -2.043928299334e+00 -2.873132963775e+00 -3.578959027266e+00 -4.166090282661e+00 -4.639107934727e+00 -5.002872230926e+00 -5.262316028844e+00 -5.422137433334e+00 -5.487215457784e+00 -5.462257353029e+00 -5.351929985876e+00 -5.160739272807e+00 -4.893125080493e+00 -4.552211232094e+00 -4.181249048190e+00 -3.821256224872e+00 -3.470958228591e+00 -3.130523543010e+00 -2.799961538402e+00 -2.479176048927e+00 -2.168006644554e+00 -1.866254837428e+00 -1.573702314270e+00 -1.290125949143e+00 -1.015311464167e+00 -7.490586565713e-01 -4.911832665615e-01 -2.415038276312e-01 3.166943883454e-04 -6.083956112709e-01 -1.627689148432e+00 -2.516453533142e+00 -3.279571261915e+00 -3.921708628301e+00 -4.447463821540e+00 -4.861314207032e+00 -5.168016362031e+00 -5.372409442712e+00 -5.479102082073e+00 -5.492885625124e+00 -5.418404838850e+00 -5.260390151262e+00 -5.022849149626e+00 -4.710546342495e+00 -4.327469111713e+00 -3.963269592958e+00 -3.608566043673e+00 -3.263394622503e+00 -2.927927085312e+00 -2.602176953284e+00 -2.286054175888e+00 -1.979404485742e+00 -1.682032032344e+00 -1.393723193241e+00 -1.114262201721e+00 -8.434383184477e-01 -5.810579647661e-01 -3.269535418116e-01 -8.098019553421e-02 1.570588897669e-01 -2.420442238706e+00 -3.229960343069e+00 -3.915871614750e+00 -4.483267342474e+00 -4.936788506697e+00 -5.280771934244e+00 -5.519391943326e+00 -5.657102916103e+00 -5.698462268922e+00 -5.647809175211e+00 -5.509680751986e+00 -5.288533502993e+00 -4.989288139645e+00 -4.614476302353e+00 -4.169827677539e+00 -3.661881480302e+00 -3.317710835451e+00 -2.978669813827e+00 -2.648680948424e+00 -2.327921997246e+00 -2.016425812306e+00 -1.714112052003e+00 -1.420845685968e+00 -1.136441214660e+00 -8.607048034698e-01 -5.934285788663e-01 -3.344231707562e-01 -8.351283367940e-02 1.594248633624e-01 3.944240446750e-01 6.212593942148e-01 -5.363088435672e+00 -5.831919059287e+00 -6.188408296483e+00 -6.437969395733e+00 -6.585191244690e+00 -6.633995799308e+00 -6.588056924364e+00 -6.451340905680e+00 -6.227946244108e+00 -5.921780847841e+00 -5.536957089998e+00 -5.077639029263e+00 -4.549044674614e+00 -3.951319976569e+00 -3.291749324778e+00 -2.581031195292e+00 -2.269381886655e+00 -1.955779793242e+00 -1.650440816683e+00 -1.353571072066e+00 -1.065217099438e+00 -7.853319378330e-01 -5.137941202672e-01 -2.504523529436e-01 4.872834639259e-03 2.523579808132e-01 4.921745052961e-01 7.244557574386e-01 9.492624948795e-01 1.166436786419e+00 1.375074993163e+00 -9.323320962624e+00 -9.333596474628e+00 -9.246742543287e+00 -9.068564373607e+00 -8.803579270115e+00 -8.455138953404e+00 -8.026248805569e+00 -7.520216536518e+00 -6.940523581688e+00 -6.290492287956e+00 -5.573675354774e+00 -4.793831151761e+00 -3.956586075726e+00 -3.058867391753e+00 -2.110063144147e+00 -1.126456168197e+00 -8.585773833331e-01 -5.792054796265e-01 -3.070422808526e-01 -4.231671595954e-02 2.148905309392e-01 4.645974932020e-01 7.068900091679e-01 9.418901607974e-01 1.169744032123e+00 1.390598535442e+00 1.604589139077e+00 1.811802831645e+00 2.012206266124e+00 2.205390878012e+00 2.389527301319e+00 -1.414906829514e+01 -1.360046120509e+01 -1.297336216074e+01 -1.227397577179e+01 -1.150671416321e+01 -1.067422829586e+01 -9.778711970924e+00 -8.822664735095e+00 -7.808820859726e+00 -6.739787101881e+00 -5.618433515343e+00 -4.448022271212e+00 -3.234683100040e+00 -1.971417749457e+00 -6.701782231733e-01 6.459460613433e-01 8.604895295593e-01 1.098154779405e+00 1.329894816374e+00 1.555453167963e+00 1.774707814368e+00 1.987643841946e+00 2.194300593554e+00 2.394768482937e+00 2.589148794313e+00 2.777554641483e+00 2.960074697119e+00 3.136745232985e+00 3.307410147641e+00 3.471358412498e+00 3.625615276774e+00 -1.965507334859e+01 -1.846860771684e+01 -1.722509030632e+01 -1.593104555642e+01 -1.459073249616e+01 -1.320600029696e+01 -1.177810601093e+01 -1.030863590593e+01 -8.799463598190e+00 -7.252387968679e+00 -5.669492724153e+00 -4.053485853036e+00 -2.411059648241e+00 -7.307456385872e-01 9.725913969507e-01 2.668067447900e+00 2.821755609759e+00 3.011831268682e+00 3.197453739451e+00 3.378324651961e+00 3.554284809941e+00 3.725266692674e+00 3.891273571141e+00 4.052342376856e+00 4.208537283497e+00 4.359922323714e+00 4.506543972052e+00 4.648364583252e+00 4.785103953294e+00 4.915685735578e+00 5.035814632664e+00 -2.562998655173e+01 -2.375099828478e+01 -2.183853783482e+01 -1.989923161457e+01 -1.793712506485e+01 -1.595317698041e+01 -1.394762923391e+01 -1.192106937622e+01 -9.874442627748e+00 -7.808665444050e+00 -5.724974280297e+00 -3.625465135460e+00 -1.517448295132e+00 6.154033892496e-01 2.755057692577e+00 4.862143575083e+00 4.949825637555e+00 5.088281539902e+00 5.223866214026e+00 5.356249884096e+00 5.485230286600e+00 5.610693448765e+00 5.732590615363e+00 5.850913786530e+00 5.965677832969e+00 6.076898718319e+00 6.184570720084e+00 6.288584254551e+00 6.388509661691e+00 6.482873682464e+00 6.565904338104e+00 -3.184471336792e+01 -2.924480758428e+01 -2.663648668448e+01 -2.402607409693e+01 -2.141730707485e+01 -1.881019133776e+01 -1.620390501820e+01 -1.359799614592e+01 -1.099244372769e+01 -8.387243584162e+00 -5.782750896298e+00 -3.180421619776e+00 -5.882055489185e-01 2.015283165859e+00 4.608579975556e+00 7.144232672699e+00 7.162548153784e+00 7.247437992459e+00 7.331092907653e+00 7.413140943036e+00 7.493328691884e+00 7.571501525883e+00 7.647558960439e+00 7.721448895219e+00 7.793135111434e+00 7.862589957519e+00 7.929748225280e+00 7.994430194838e+00 8.056044411821e+00 8.112690217508e+00 8.156984595510e+00 -3.806105804979e+01 -3.473908255724e+01 -3.143465535736e+01 -2.815307680385e+01 -2.489762328648e+01 -2.166730855816e+01 -1.846023696283e+01 -1.527492015822e+01 -1.211036893753e+01 -8.965671151646e+00 -5.840303294435e+00 -2.735106455868e+00 3.413194408090e-01 3.415383086574e+00 6.464124012658e+00 9.421886911394e+00 9.376653353454e+00 9.407579840630e+00 9.439025107123e+00 9.470530130406e+00 9.501778192423e+00 9.532544363030e+00 9.562677897536e+00 9.592064445764e+00 9.620621750508e+00 9.648263758643e+00 9.674875166807e+00 9.700189180978e+00 9.723454855206e+00 9.742304347940e+00 9.747629867815e+00 -4.404152563389e+01 -4.002290903501e+01 -3.604855563064e+01 -3.212144592496e+01 -2.824414993821e+01 -2.441461487242e+01 -2.062989501457e+01 -1.688750213321e+01 -1.318551468158e+01 -9.522120130856e+00 -5.895935089443e+00 -2.307172886093e+00 1.234953067211e+00 4.761714402331e+00 8.247358384946e+00 1.161512128489e+01 1.150471604511e+01 1.148412508379e+01 1.146558657411e+01 1.144863277249e+01 1.143290759100e+01 1.141815009713e+01 1.140416047189e+01 1.139078377618e+01 1.137788573619e+01 1.136533943836e+01 1.135296909594e+01 1.134043234706e+01 1.132680178958e+01 1.130921840236e+01 1.127666782184e+01 -4.955843420193e+01 -4.489357696471e+01 -4.030095213981e+01 -3.577868699672e+01 -3.132833417611e+01 -2.694662701307e+01 -2.262955085181e+01 -1.837370655411e+01 -1.417635390942e+01 -1.003489688346e+01 -5.947172775250e+00 -1.912821774059e+00 2.058387484633e+00 6.002229738813e+00 9.890395170125e+00 1.363670773560e+01 1.346637904506e+01 1.339819761180e+01 1.333351683321e+01 1.327184023555e+01 1.321277990933e+01 1.315602958402e+01 1.310134737429e+01 1.304853042467e+01 1.299740103965e+01 1.294778216071e+01 1.289944832389e+01 1.285197299728e+01 1.280424620733e+01 1.275283787344e+01 1.268448743813e+01 -5.440628397813e+01 -4.916532803624e+01 -4.402903549827e+01 -3.898424387242e+01 -3.403125726922e+01 -2.916565098001e+01 -2.438216985523e+01 -1.967638568767e+01 -1.504478102741e+01 -1.048413478437e+01 -5.991718812167e+00 -1.566754073022e+00 2.780456189784e+00 7.089649206956e+00 1.133029597333e+01 1.540805376306e+01 1.518544136424e+01 1.507582048080e+01 1.497095589652e+01 1.487028077734e+01 1.477335715968e+01 1.467984412255e+01 1.458946486494e+01 1.450198963326e+01 1.441721265421e+01 1.433492721178e+01 1.425487267686e+01 1.417655815603e+01 1.409865827631e+01 1.401697514078e+01 1.391517745764e+01 -5.841505863582e+01 -5.267329356015e+01 -4.708831042731e+01 -4.161508334711e+01 -3.624908898087e+01 -3.098616654332e+01 -2.582081777821e+01 -2.074744314342e+01 -1.576113418400e+01 -1.085746890954e+01 -6.032855389643e+00 -1.286123812479e+00 3.371758863814e+00 7.983322261427e+00 1.251563338724e+01 1.687221015788e+01 1.660841469869e+01 1.646232574313e+01 1.632213819278e+01 1.618737154468e+01 1.605759601527e+01 1.593243113467e+01 1.581153771403e+01 1.569461315158e+01 1.558138366942e+01 1.547158299037e+01 1.536488616854e+01 1.526065599160e+01 1.515708487378e+01 1.504841842179e+01 1.491329535135e+01 -6.155322154867e+01 -5.531803864247e+01 -4.936964218903e+01 -4.358032407118e+01 -3.790753191650e+01 -3.233957335699e+01 -2.687402505609e+01 -2.151055576873e+01 -1.624749824433e+01 -1.108172735637e+01 -6.009564038620e+00 -1.028588062437e+00 3.851414577450e+00 8.677039847049e+00 1.341612518462e+01 1.794264559484e+01 1.762905393050e+01 1.745954729542e+01 1.729739797664e+01 1.714161117363e+01 1.699149592676e+01 1.684656197479e+01 1.670645170336e+01 1.657089113329e+01 1.643964670009e+01 1.631244439255e+01 1.618876804011e+01 1.606733712557e+01 1.594470432564e+01 1.581147227543e+01 1.563879781023e+01 -6.427381859968e+01 -5.712846595893e+01 -5.061730008429e+01 -4.451517688981e+01 -3.867069520004e+01 -3.299768853554e+01 -2.744910940247e+01 -2.199888863100e+01 -1.663522211781e+01 -1.135291072084e+01 -6.149526784535e+00 -1.027382296390e+00 3.998551396707e+00 8.971415819657e+00 1.385721157487e+01 1.854772107218e+01 1.827251916659e+01 1.809476716695e+01 1.792190667989e+01 1.775396018985e+01 1.759086596304e+01 1.743246884570e+01 1.727850261357e+01 1.712855902485e+01 1.698201416667e+01 1.683788843180e+01 1.669457986408e+01 1.654933073699e+01 1.639713713949e+01 1.622845055555e+01 1.602249963838e+01 -5.177429308066e+01 -5.478313752532e+01 -5.132092497310e+01 -4.615635015820e+01 -4.041066558044e+01 -3.450796283145e+01 -2.862442778411e+01 -2.283528966783e+01 -1.717106610062e+01 -1.163927874931e+01 -6.237210808513e+00 -9.581120644733e-01 4.188962951898e+00 9.258141230432e+00 1.421741750181e+01 1.900140963085e+01 1.870498571568e+01 1.848213865733e+01 1.827670060161e+01 1.808561342205e+01 1.790674526185e+01 1.773870569651e+01 1.758072460993e+01 1.743260701984e+01 1.729479924063e+01 1.716857601960e+01 1.705650237562e+01 1.696343601836e+01 1.689876534405e+01 1.688160202652e+01 1.694685053133e+01 
        </DataArray>
        <DataArray type="Float64" Name="STRESS_XY" format="ascii">
          -1.415358887149e-01 -1.059986259812e-01 -7.545673285193e-02 -5.174998508533e-02 -3.358405883030e-02 -2.005586705600e-02 -1.039366608436e-02 -3.166767463755e-03 2.233060716109e-03 6.178065391653e-03 9.775416276780e-03 1.312813982129e-02 1.640236154163e-02 2.086928816907e-02 2.716859430149e-02 3.561797121287e-02 2.484328795627e-02 1.757970203576e-02 1.242869566135e-02 8.803485605415e-03 6.292589244499e-03 4.611248712322e-03 3.565635249396e-03 3.030236199612e-03 2.931151178025e-03 3.234961326301e-03 3.942011090500e-03 5.077410488920e-03 6.669922682658e-03 8.687580130977e-03 1.073349052377e-02 6.218075357465e+00 5.494763115168e+00 4.798006060210e+00 4.126686330053e+00 3.479974552154e+00 2.856792850236e+00 2.256048750817e+00 1.676696805466e+00 1.117767433491e+00 5.783441274386e-01 5.754320811704e-02 -4.452674549019e-01 -9.294463687045e-01 -1.400047338209e+00 -1.853780549645e+00 -2.281912282701e+00 -2.213216143190e+00 -2.159509193408e+00 -2.107461983031e+00 -2.057031038729e+00 -2.008167497209e+00 -1.960821626521e+00 -1.914941743790e+00 -1.870478296116e+00 -1.827382615924e+00 -1.785606325781e+00 -1.745100544877e+00 -1.705807900470e+00 -1.667633355025e+00 -1.630358448886e+00 -1.593221308526e+00 1.219759345595e+01 1.077848088074e+01 9.411655954416e+00 8.094793539760e+00 6.826218308934e+00 5.603802635026e+00 4.425400644725e+00 3.288961309804e+00 2.192581497705e+00 1.134464739082e+00 1.128767768147e-01 -8.734218729138e-01 -1.823173396733e+00 -2.746290596803e+00 -3.636321460783e+00 -4.476132903693e+00 -4.341378451406e+00 -4.236028887630e+00 -4.133935052519e+00 -4.035011469918e+00 -3.939163013326e+00 -3.846290316631e+00 -3.756294656233e+00 -3.669077001094e+00 -3.584542163916e+00 -3.502595849206e+00 -3.423142274967e+00 -3.346067870861e+00 -3.271191773927e+00 -3.198092995646e+00 -3.125311682881e+00 1.770918211327e+01 1.564822321843e+01 1.366368051788e+01 1.175183796999e+01 9.910140089141e+00 8.135465757209e+00 6.424691174024e+00 4.774836796182e+00 3.183140377254e+00 1.646992362821e+00 1.638760029392e-01 -1.268008400516e+00 -2.646834306744e+00 -3.986993974454e+00 -5.279120617678e+00 -6.498342567450e+00 -6.302702087206e+00 -6.149759109354e+00 -6.001542895422e+00 -5.857929595500e+00 -5.718780267366e+00 -5.583951645874e+00 -5.453298803662e+00 -5.326679790952e+00 -5.203955096129e+00 -5.084988789646e+00 -4.969641968629e+00 -4.857752741775e+00 -4.749064162040e+00 -4.642988089965e+00 -4.537493394583e+00 2.254148836142e+01 1.991698220161e+01 1.739071214941e+01 1.495729228635e+01 1.261323142331e+01 1.035449500587e+01 8.177091761522e+00 6.077224776767e+00 4.051378883941e+00 2.096232735988e+00 2.085821226356e-01 -1.613862564461e+00 -3.368776039827e+00 -5.074478025249e+00 -6.719048073730e+00 -8.270832719358e+00 -8.021817499266e+00 -7.827159425559e+00 -7.638518096612e+00 -7.455735339050e+00 -7.278634088970e+00 -7.107031635249e+00 -6.940743954757e+00 -6.779590287927e+00 -6.623393083899e+00 -6.471979910511e+00 -6.325175101500e+00 -6.182776527565e+00 -6.044470209216e+00 -5.909551166668e+00 -5.775604797135e+00 2.650932463746e+01 2.342086543323e+01 2.044956509420e+01 1.758798602322e+01 1.483162132781e+01 1.217561967275e+01 9.615262651865e+00 7.146079826682e+00 4.763934196077e+00 2.464922828330e+00 2.452759905700e-01 -1.897696063552e+00 -3.961258767622e+00 -5.966955586418e+00 -7.900774342847e+00 -9.725499187861e+00 -9.432667705242e+00 -9.203774020615e+00 -8.981957826946e+00 -8.767030388146e+00 -8.558784141666e+00 -8.357002743968e+00 -8.161471938718e+00 -7.971977085057e+00 -7.788311207588e+00 -7.610271315374e+00 -7.437653692050e+00 -7.270225603717e+00 -7.107642116958e+00 -6.949145277330e+00 -6.792185137473e+00 2.946082906805e+01 2.602540984840e+01 2.272274804907e+01 1.954284611332e+01 1.648006879883e+01 1.352885869812e+01 1.068393425974e+01 7.940317807639e+00 5.293412577940e+00 2.738881530834e+00 2.725376806030e-01 -2.108608473776e+00 -4.401517110075e+00 -6.630132352246e+00 -8.778889948713e+00 -1.080643766536e+01 -1.048102142587e+01 -1.022668913153e+01 -9.980224847184e+00 -9.741415816247e+00 -9.510029774780e+00 -9.285828393093e+00 -9.068569943672e+00 -8.858019295553e+00 -8.653945326361e+00 -8.456123784999e+00 -8.264330709225e+00 -8.078320144260e+00 -7.897740545247e+00 -7.721865945467e+00 -7.548313334759e+00 3.128325972366e+01 2.763068850670e+01 2.412291440046e+01 2.074672757136e+01 1.749520563514e+01 1.436220003531e+01 1.134204307257e+01 8.429436232455e+00 5.619494586850e+00 2.907614212796e+00 2.893482527606e-01 -2.238474861462e+00 -4.672624533684e+00 -7.038522969017e+00 -9.319651730081e+00 -1.147214245534e+01 -1.112662699771e+01 -1.085661650648e+01 -1.059496766835e+01 -1.034145115769e+01 -1.009581854949e+01 -9.857814276640e+00 -9.627182380345e+00 -9.403671532165e+00 -9.187036806241e+00 -8.977041662795e+00 -8.773452803183e+00 -8.576024222531e+00 -8.384435298001e+00 -8.198084740066e+00 -8.015118326087e+00 3.190762057521e+01 2.817533688353e+01 2.459635932857e+01 2.115340327719e+01 1.783803223672e+01 1.464361447841e+01 1.156428283751e+01 8.594613691502e+00 5.729622386258e+00 2.964616260823e+00 2.950573213403e-01 -2.282287603250e+00 -4.764130728509e+00 -7.176417580005e+00 -9.502208804192e+00 -1.169746892064e+01 -1.134457971423e+01 -1.106937994027e+01 -1.080266039932e+01 -1.054420357339e+01 -1.029376849924e+01 -1.005110063991e+01 -9.815944860632e+00 -9.588046730319e+00 -9.367160028633e+00 -9.153045537002e+00 -8.945474363721e+00 -8.744217852811e+00 -8.549025804835e+00 -8.359534416558e+00 -8.174846621727e+00 3.131111658747e+01 2.763873968643e+01 2.412495430084e+01 2.074725296315e+01 1.749537100191e+01 1.436227812987e+01 1.134209414317e+01 8.429468134818e+00 5.619505173632e+00 2.907604850615e+00 2.893172819411e-01 -2.238523884399e+00 -4.672685818207e+00 -7.038616072294e+00 -9.321338679473e+00 -1.146900577222e+01 -1.112717418718e+01 -1.085707752029e+01 -1.059536914263e+01 -1.034180618676e+01 -1.009613459516e+01 -9.858097968683e+00 -9.627438409441e+00 -9.403904897817e+00 -9.187252574368e+00 -8.977250081027e+00 -8.773679021625e+00 -8.576348446978e+00 -8.385119913263e+00 -8.199999282764e+00 -8.021545309559e+00 2.951869882086e+01 2.604205669497e+01 2.272690907337e+01 1.954385497422e+01 1.648032530144e+01 1.352894453846e+01 1.068398224692e+01 7.940345899682e+00 5.293410518514e+00 2.738848032843e+00 2.724633669856e-01 -2.108720435371e+00 -4.401652829691e+00 -6.630323646555e+00 -8.780638541914e+00 -1.080371889578e+01 -1.048158960115e+01 -1.022720079751e+01 -9.980718111157e+00 -9.741895784972e+00 -9.510495427048e+00 -9.286276167868e+00 -9.068999805769e+00 -8.858431779507e+00 -8.654346381615e+00 -8.456529569474e+00 -8.264793643410e+00 -8.079006276836e+00 -7.899198731850e+00 -7.725904096580e+00 -7.561762625681e+00 2.660213546560e+01 2.344734415529e+01 2.045613510247e+01 1.758957886296e+01 1.483198642369e+01 1.217568390376e+01 9.615276058029e+00 7.146094057699e+00 4.763931520356e+00 2.464881447902e+00 2.451636567944e-01 -1.897885738220e+00 -3.961500140335e+00 -5.967287858659e+00 -7.902591464173e+00 -9.723586208468e+00 -9.433545663388e+00 -9.204507281819e+00 -8.982611900904e+00 -8.767627290612e+00 -8.559333983334e+00 -8.357514408098e+00 -8.161951528330e+00 -7.972433897857e+00 -7.788758788736e+00 -7.610740179211e+00 -7.438228511743e+00 -7.271176760408e+00 -7.109847461692e+00 -6.955501504655e+00 -6.813681608742e+00 2.267963369437e+01 1.995580354598e+01 1.739993841439e+01 1.495949835906e+01 1.261366115350e+01 1.035425275053e+01 8.176546522426e+00 6.076626159883e+00 4.050888553298e+00 2.095936397480e+00 2.084497964780e-01 -1.613906147622e+00 -3.368805642041e+00 -5.074669436289e+00 -6.720768384846e+00 -8.269997761260e+00 -8.023369017549e+00 -7.828600610946e+00 -7.639839779663e+00 -7.456897150328e+00 -7.279609606711e+00 -7.107813043078e+00 -6.941341210457e+00 -6.780026770616e+00 -6.623709763019e+00 -6.472250162020e+00 -6.325560385398e+00 -6.183711126036e+00 -6.047281176416e+00 -5.918537281490e+00 -5.807199058569e+00 1.791406166496e+01 1.570518996818e+01 1.367502694800e+01 1.175387494194e+01 9.911549882080e+00 8.136963605921e+00 6.425369126046e+00 4.773937603995e+00 3.180459602408e+00 1.642865598665e+00 1.589015868183e-01 -1.273103736324e+00 -2.651350470534e+00 -3.990532714823e+00 -5.282524610281e+00 -6.499997560095e+00 -6.304597034714e+00 -6.150053091638e+00 -6.000902485974e+00 -5.856756016428e+00 -5.717327654759e+00 -5.582380215148e+00 -5.451710676819e+00 -5.325143683336e+00 -5.202531765782e+00 -5.083764397398e+00 -4.968804948649e+00 -4.857843725909e+00 -4.751864260257e+00 -4.654650467886e+00 -4.582589515655e+00 1.252605611513e+01 1.087885977090e+01 9.427348302594e+00 8.081809787381e+00 6.807247686493e+00 5.588973649157e+00 4.418933809653e+00 3.291690877769e+00 2.203253840135e+00 1.150806815340e+00 1.322726346302e-01 -8.533771146073e-01 -1.804439712547e+00 -2.730524557125e+00 -3.625605900787e+00 -4.465637312997e+00 -4.335445401241e+00 -4.234444009553e+00 -4.135383810673e+00 -4.038511741107e+00 -3.944030607869e+00 -3.852066524066e+00 -3.762676196808e+00 -3.675856613871e+00 -3.591548916531e+00 -3.509647608701e+00 -3.430073061458e+00 -3.353083776469e+00 -3.280405746039e+00 -3.218984156519e+00 -3.197652521050e+00 6.847359844552e+00 5.630029716863e+00 4.836503198187e+00 4.154914293915e+00 3.505833375552e+00 2.873477731249e+00 2.258798637751e+00 1.664526723268e+00 1.092745648035e+00 5.442315546531e-01 1.817647456448e-02 -4.862020263411e-01 -9.685746003855e-01 -1.435458342438e+00 -1.885553224646e+00 -2.313012416537e+00 -2.234488591006e+00 -2.172801166644e+00 -2.115442859261e+00 -2.061177300523e+00 -2.009260457375e+00 -1.959180152584e+00 -1.910557431292e+00 -1.863120909116e+00 -1.816743256740e+00 -1.771598632555e+00 -1.728586534723e+00 -1.690425573016e+00 -1.664503297876e+00 -1.670416407100e+00 -1.767929398471e+00 -4.361358732772e-01 4.568432878115e-02 7.075162047936e-02 5.241372989634e-03 -4.098730810475e-02 -5.250925785184e-02 -4.123613978902e-02 -1.556485211099e-02 1.428303794571e-02 4.081563082778e-02 6.307031540118e-02 7.945676218072e-02 8.837026835852e-02 9.308365869636e-02 9.598526427029e-02 1.043359307877e-01 7.160313011665e-02 4.985614654787e-02 3.312219737929e-02 1.942463550575e-02 7.562421115921e-03 -3.291781786919e-03 -1.374633787221e-02 -2.423929169849e-02 -3.500109931766e-02 -4.588027656703e-02 -5.588665912361e-02 -6.203982591030e-02 -5.644032251124e-02 -1.866534253807e-02 1.113749731855e-01 
        </DataArray>
        <DataArray type="Float64" Name="STRESS_YY" format="ascii">
          -6.365899693771e+01 -5.731696766059e+01 -5.113521066606e+01 -4.509409000823e+01 -3.918336719421e+01 -3.339495918135e+01 -2.772187860230e+01 -2.215828105183e+01 -1.669918919585e+01 -1.133996039413e+01 -6.076500874725e+00 -9.070727148805e-01 4.157075879180e+00 9.163097406474e+00 1.407290618502e+01 1.879430305218e+01 1.846289964844e+01 1.827388324324e+01 1.809202364462e+01 1.791672696839e+01 1.774751173736e+01 1.758397766124e+01 1.742578135616e+01 1.727262079254e+01 1.712422403131e+01 1.698033973609e+01 1.684072803022e+01 1.670515427444e+01 1.657337819155e+01 1.644513133807e+01 1.632007155767e+01 -6.365903838900e+01 -5.731696759598e+01 -5.113520253005e+01 -4.509408015330e+01 -3.918335717098e+01 -3.339494977486e+01 -2.772186993187e+01 -2.215827223597e+01 -1.669918007816e+01 -1.133995132184e+01 -6.076491820149e+00 -9.070636675009e-01 4.157084748819e+00 9.163106413877e+00 1.407291572930e+01 1.879431056485e+01 1.846290518885e+01 1.827388904845e+01 1.809202942776e+01 1.791673282400e+01 1.774751820811e+01 1.758398454368e+01 1.742578794771e+01 1.727262751185e+01 1.712423131832e+01 1.698034680557e+01 1.684073506205e+01 1.670516150647e+01 1.657338442014e+01 1.644513521948e+01 1.632006864067e+01 -6.365916786701e+01 -5.731696945050e+01 -5.113517896502e+01 -4.509405076375e+01 -3.918332841233e+01 -3.339492197081e+01 -2.772184321475e+01 -2.215824625843e+01 -1.669915478914e+01 -1.133992552355e+01 -6.076466175974e+00 -9.070371498752e-01 4.157111557529e+00 9.163134396089e+00 1.407294372769e+01 1.879433237141e+01 1.846292058858e+01 1.827390606570e+01 1.809204651577e+01 1.791675138140e+01 1.774753674356e+01 1.758400434324e+01 1.742580771347e+01 1.727264844247e+01 1.712425169571e+01 1.698036826003e+01 1.684075610107e+01 1.670518244024e+01 1.657340293720e+01 1.644514755009e+01 1.632005820400e+01 -6.365940056999e+01 -5.731697776778e+01 -5.113514266401e+01 -4.509400528624e+01 -3.918328222213e+01 -3.339487834238e+01 -2.772180126844e+01 -2.215820553289e+01 -1.669911409804e+01 -1.133988575398e+01 -6.076424711334e+00 -9.069956106101e-01 4.157154944458e+00 9.163178077922e+00 1.407298967892e+01 1.879436637763e+01 1.846294655827e+01 1.827393217225e+01 1.809207522443e+01 1.791678019581e+01 1.774756799242e+01 1.758403516249e+01 1.742584098947e+01 1.727268133339e+01 1.712428627318e+01 1.698040225514e+01 1.684079106725e+01 1.670521533479e+01 1.657343315127e+01 1.644516544020e+01 1.632003717020e+01 -6.365976339861e+01 -5.731700149620e+01 -5.113509881748e+01 -4.509394634205e+01 -3.918322425692e+01 -3.339482365404e+01 -2.772174901858e+01 -2.215815528198e+01 -1.669906427149e+01 -1.133983476240e+01 -6.076373153550e+00 -9.069430834778e-01 4.157209362974e+00 9.163234909368e+00 1.407304783648e+01 1.879441249342e+01 1.846298007634e+01 1.827396779344e+01 1.809211249121e+01 1.791681978475e+01 1.774760882284e+01 1.758407791367e+01 1.742588456901e+01 1.727272601182e+01 1.712433143361e+01 1.698044802583e+01 1.684083654908e+01 1.670525928419e+01 1.657347146958e+01 1.644518577771e+01 1.631999794597e+01 -6.366029994576e+01 -5.731705239831e+01 -5.113505422789e+01 -4.509388066396e+01 -3.918315885387e+01 -3.339476163137e+01 -2.772169096936e+01 -2.215809899909e+01 -1.669901027037e+01 -1.133978134438e+01 -6.076320672307e+00 -9.068883918610e-01 4.157267634622e+00 9.163299195498e+00 1.407311412493e+01 1.879446934820e+01 1.846302203013e+01 1.827401269037e+01 1.809215891196e+01 1.791686840946e+01 1.774765797140e+01 1.758412951243e+01 1.742593605064e+01 1.727277944437e+01 1.712438500434e+01 1.698050222929e+01 1.684088873839e+01 1.670530992387e+01 1.657351240466e+01 1.644520111557e+01 1.631992692912e+01 -6.366105720553e+01 -5.731712992717e+01 -5.113499926670e+01 -4.509379917465e+01 -3.918308060725e+01 -3.339469402373e+01 -2.772163190823e+01 -2.215804717620e+01 -1.669895964713e+01 -1.133972731698e+01 -6.076254993742e+00 -9.068080343858e-01 4.157365478424e+00 9.163405031913e+00 1.407321468185e+01 1.879453639658e+01 1.846306476172e+01 1.827405630844e+01 1.809220572095e+01 1.791691732470e+01 1.774771055741e+01 1.758418229890e+01 1.742599212413e+01 1.727283577211e+01 1.712444240355e+01 1.698055893140e+01 1.684094549540e+01 1.670536106808e+01 1.657355278637e+01 1.644520410152e+01 1.631980833615e+01 -6.366237571221e+01 -5.731745690721e+01 -5.113510658795e+01 -4.509383187369e+01 -3.918307828370e+01 -3.339466130614e+01 -2.772156605494e+01 -2.215794407315e+01 -1.669882038012e+01 -1.133955916049e+01 -6.076074408166e+00 -9.066385384512e-01 4.157495167167e+00 9.163468445684e+00 1.407322592356e+01 1.879459576336e+01 1.846310167261e+01 1.827409382317e+01 1.809224389503e+01 1.791695725922e+01 1.774775250815e+01 1.758422752406e+01 1.742603912715e+01 1.727288523515e+01 1.712449392264e+01 1.698061150891e+01 1.684099736886e+01 1.670540912300e+01 1.657358442799e+01 1.644518411307e+01 1.631961694930e+01 -6.366420591646e+01 -5.731792303502e+01 -5.113531634814e+01 -4.509400090430e+01 -3.918327703851e+01 -3.339490856222e+01 -2.772186775681e+01 -2.215830097047e+01 -1.669922588205e+01 -1.133999752784e+01 -6.076519700800e+00 -9.070412016810e-01 4.157215103510e+00 9.163446674564e+00 1.407340361124e+01 1.879594535076e+01 1.846297263849e+01 1.827401598650e+01 1.809220025573e+01 1.791693737414e+01 1.774774697334e+01 1.758423270599e+01 1.742604994277e+01 1.727289955239e+01 1.712450811323e+01 1.698062477795e+01 1.684100459172e+01 1.670540543757e+01 1.657355298363e+01 1.644507616041e+01 1.631925831323e+01 -6.366670753754e+01 -5.731842977038e+01 -5.113544665116e+01 -4.509404830772e+01 -3.918331750127e+01 -3.339494894185e+01 -2.772190003978e+01 -2.215832084270e+01 -1.669923259956e+01 -1.134000107125e+01 -6.076539226224e+00 -9.071175851901e-01 4.157009154990e+00 9.162993822456e+00 1.407579582224e+01 1.878701124369e+01 1.846341908461e+01 1.827435798008e+01 1.809246476636e+01 1.791713891241e+01 1.774789968416e+01 1.758434246993e+01 1.742612434058e+01 1.727294069620e+01 1.712452045494e+01 1.698060628613e+01 1.684095603440e+01 1.670531800597e+01 1.657340424110e+01 1.644478874082e+01 1.631857431566e+01 -6.367107400570e+01 -5.731970171604e+01 -5.113612323729e+01 -4.509459162233e+01 -3.918388372994e+01 -3.339555323709e+01 -2.772252168708e+01 -2.215893584806e+01 -1.669982066593e+01 -1.134053059000e+01 -6.076969538906e+00 -9.073991047246e-01 4.156924915991e+00 9.163138712009e+00 1.407615334990e+01 1.878700054698e+01 1.846327133538e+01 1.827422499729e+01 1.809234560898e+01 1.791703446136e+01 1.774780398641e+01 1.758425260311e+01 1.742603616079e+01 1.727285268199e+01 1.712442681516e+01 1.698050631104e+01 1.684084175446e+01 1.670517677806e+01 1.657319847607e+01 1.644440347338e+01 1.631759963038e+01 -6.367827776011e+01 -5.732181245489e+01 -5.113719459713e+01 -4.509522177839e+01 -3.918442104915e+01 -3.339611252637e+01 -2.772308245533e+01 -2.215945926723e+01 -1.670030191752e+01 -1.134100509176e+01 -6.077483678663e+00 -9.079810319695e-01 4.156279049780e+00 9.162476210375e+00 1.407563204982e+01 1.878667654641e+01 1.846319064703e+01 1.827413251241e+01 1.809224266089e+01 1.791691774212e+01 1.774767453916e+01 1.758410921511e+01 1.742587907008e+01 1.727267982272e+01 1.712423643700e+01 1.698029224502e+01 1.684059609421e+01 1.670487702141e+01 1.657278431031e+01 1.644367530925e+01 1.631585803416e+01 -6.368982422824e+01 -5.732457482141e+01 -5.113915862467e+01 -4.509655432101e+01 -3.918553195461e+01 -3.339759705672e+01 -2.772521585211e+01 -2.216210129662e+01 -1.670307755990e+01 -1.134352145300e+01 -6.079476649736e+00 -9.093742245366e-01 4.155373009014e+00 9.161833237016e+00 1.407505715336e+01 1.878588397687e+01 1.846271353916e+01 1.827370646827e+01 1.809185979052e+01 1.791656271270e+01 1.774733086604e+01 1.758376418403e+01 1.742551844644e+01 1.727229189063e+01 1.712381061802e+01 1.697981649787e+01 1.684005311750e+01 1.670423169243e+01 1.657192394989e+01 1.644222527334e+01 1.631249859469e+01 -6.371634901498e+01 -5.732980668598e+01 -5.114594999607e+01 -4.510391344132e+01 -3.918954549692e+01 -3.339718659088e+01 -2.772184141858e+01 -2.215826795256e+01 -1.670105961180e+01 -1.134472910162e+01 -6.084319039186e+00 -9.173567296100e-01 4.145295924307e+00 9.151160374978e+00 1.406530954467e+01 1.878361279139e+01 1.846445664906e+01 1.827501861792e+01 1.809280946459e+01 1.791720274127e+01 1.774770218958e+01 1.758389611069e+01 1.742543084492e+01 1.727199512865e+01 1.712330738814e+01 1.697909997797e+01 1.683909771903e+01 1.670295122604e+01 1.657003648482e+01 1.643884296899e+01 1.630478367559e+01 -6.376936881470e+01 -5.728601959178e+01 -5.109604539305e+01 -4.508904685616e+01 -3.921082437973e+01 -3.344088005525e+01 -2.777221539479e+01 -2.220241536277e+01 -1.673100160676e+01 -1.135710233890e+01 -6.079110919266e+00 -8.970718005775e-01 4.176660324528e+00 9.188699012432e+00 1.410472353451e+01 1.879395100203e+01 1.845748200937e+01 1.826941675408e+01 1.808839598126e+01 1.791381925053e+01 1.774522299752e+01 1.758222805340e+01 1.742450883600e+01 1.727177260193e+01 1.712374644385e+01 1.698015280928e+01 1.684065065120e+01 1.670469006500e+01 1.657110812986e+01 1.643699759463e+01 1.629385500746e+01 -6.512092157236e+01 -5.784900135872e+01 -5.117797101300e+01 -4.490710673467e+01 -3.890754066694e+01 -3.310660132471e+01 -2.746081881579e+01 -2.194418968343e+01 -1.653869370694e+01 -1.123218572368e+01 -6.017064721048e+00 -8.900175707661e-01 4.139779791659e+00 9.118944276453e+00 1.401652979517e+01 1.872649521031e+01 1.843888458474e+01 1.825277641839e+01 1.807357996518e+01 1.790059086634e+01 1.773332274414e+01 1.757139073533e+01 1.741445305939e+01 1.726217245714e+01 1.711416106082e+01 1.696989226193e+01 1.682852487783e+01 1.668849732331e+01 1.654655654577e+01 1.639534518614e+01 1.621554648230e+01 -5.172442968457e+01 -5.477024594489e+01 -5.132492394524e+01 -4.616449467618e+01 -4.041811843900e+01 -3.451335506301e+01 -2.862751330817e+01 -2.283634101004e+01 -1.717064936866e+01 -1.163782831459e+01 -6.235153262520e+00 -9.558018419748e-01 4.191232559430e+00 9.260059843392e+00 1.421865894820e+01 1.900141958654e+01 1.870522538154e+01 1.848237035367e+01 1.827690182115e+01 1.808578832068e+01 1.790690172730e+01 1.773884744026e+01 1.758084653438e+01 1.743268938993e+01 1.729479624714e+01 1.716839027962e+01 1.705592730586e+01 1.696201981012e+01 1.689547657845e+01 1.687397815929e+01 1.692823509082e+01 
        </DataArray>
        <DataArray type="Float64" Name="STRESS_ZZ" format="ascii">
          -6.379829516547e+01 -5.743508362439e+01 -5.123607843261e+01 -4.517962538397e+01 -3.925470874488e+01 -3.345298355626e+01 -2.776733780823e+01 -2.219178514533e+01 -1.672128157504e+01 -1.135113591003e+01 -6.077151448857e+00 -8.975693316333e-01 4.176361089363e+00 9.191992508862e+00 1.411122055715e+01 1.884169110189e+01 1.850810017117e+01 1.831745964865e+01 1.813417485334e+01 1.795760346671e+01 1.778723055273e+01 1.762263277963e+01 1.746345081580e+01 1.730937202238e+01 1.716011768184e+01 1.701543223573e+01 1.687507225769e+01 1.673879534443e+01 1.660633217334e+01 1.647730958701e+01 1.635096995220e+01 -6.318651870276e+01 -5.689409935437e+01 -5.076357125807e+01 -4.477319901690e+01 -3.891196839972e+01 -3.317161922839e+01 -2.754514147354e+01 -2.202664944986e+01 -1.661119489556e+01 -1.129417746061e+01 -6.071486962104e+00 -9.414270343334e-01 4.084815871110e+00 9.054097781304e+00 1.392863908622e+01 1.861694547735e+01 1.829011611738e+01 1.810476569297e+01 1.792660747960e+01 1.775500352653e+01 1.758944432442e+01 1.742951052114e+01 1.727484753186e+01 1.712514856052e+01 1.698013962987e+01 1.683956904441e+01 1.670319970308e+01 1.657079605652e+01 1.644210155864e+01 1.631678004124e+01 1.619420811694e+01 -6.137469893798e+01 -5.529193962586e+01 -4.936421017389e+01 -4.356953938334e+01 -3.789691990302e+01 -3.233833939851e+01 -2.688709077456e+01 -2.153758860215e+01 -1.628516725773e+01 -1.112549220983e+01 -6.054712545214e+00 -1.071315019896e+00 3.813699051872e+00 8.645714699108e+00 1.338791124607e+01 1.795134583490e+01 1.764454056812e+01 1.747485756703e+01 1.731188236782e+01 1.715499147989e+01 1.700368646685e+01 1.685756561715e+01 1.671628619241e+01 1.657955887605e+01 1.644712115311e+01 1.631873880239e+01 1.619418722416e+01 1.607325407230e+01 1.595572119641e+01 1.584136136511e+01 1.572994567888e+01 -5.843245618935e+01 -5.269018074978e+01 -4.709177782065e+01 -4.161490875341e+01 -3.624857457656e+01 -3.098517002542e+01 -2.581847730381e+01 -2.074339950691e+01 -1.575572787040e+01 -1.085156450005e+01 -6.027472522775e+00 -1.282242831838e+00 3.373429379519e+00 7.982535080292e+00 1.250981784162e+01 1.687047058109e+01 1.659618618767e+01 1.645194320696e+01 1.631362599253e+01 1.618062530245e+01 1.605247017577e+01 1.592877744458e+01 1.580923434694e+01 1.569356940176e+01 1.558154850087e+01 1.547295638958e+01 1.536759744427e+01 1.526528896057e+01 1.516588266914e+01 1.506932175246e+01 1.497602292296e+01 -5.447284691369e+01 -4.918881891600e+01 -4.403361280730e+01 -3.898442825229e+01 -3.403028439847e+01 -2.916411755193e+01 -2.438037078157e+01 -1.967460562701e+01 -1.504322697611e+01 -1.048292127500e+01 -5.990816279807e+00 -1.566105308180e+00 2.780924487428e+00 7.090045640743e+00 1.132810141942e+01 1.541586173652e+01 1.518534236255e+01 1.507533712677e+01 1.497020186309e+01 1.486935346908e+01 1.477235011647e+01 1.467884257632e+01 1.458854865414e+01 1.450122996565e+01 1.441668326530e+01 1.433472508845e+01 1.425519299756e+01 1.417795023226e+01 1.410293638625e+01 1.403032801594e+01 1.396140789085e+01 -4.964801390265e+01 -4.492242285185e+01 -4.030725211216e+01 -3.577919771436e+01 -3.132730363625e+01 -2.694516874819e+01 -2.262804116614e+01 -1.837227977096e+01 -1.417504407765e+01 -1.003372899312e+01 -5.946151254513e+00 -1.911992278016e+00 2.058955601946e+00 6.002546606971e+00 9.888177248664e+00 1.364342262928e+01 1.346623175726e+01 1.339794450724e+01 1.333323948973e+01 1.327156730714e+01 1.321252074860e+01 1.315579382846e+01 1.310113799064e+01 1.304835975987e+01 1.299728961177e+01 1.294778454704e+01 1.289972018764e+01 1.285302019179e+01 1.280772500646e+01 1.276430060197e+01 1.272508111988e+01 -4.414334398526e+01 -4.005498509813e+01 -3.605592747697e+01 -3.212241124279e+01 -2.824351656322e+01 -2.441360211007e+01 -2.062883023999e+01 -1.688647633781e+01 -1.318455096148e+01 -9.521262598190e+00 -5.895203046886e+00 -2.306618186391e+00 1.235269305566e+00 4.761831759736e+00 8.245377990311e+00 1.162124785952e+01 1.150490348577e+01 1.148421291442e+01 1.146563905257e+01 1.144866491247e+01 1.143292800004e+01 1.141816050314e+01 1.140416861426e+01 1.139079483302e+01 1.137791774104e+01 1.136543612134e+01 1.135327531588e+01 1.134141570511e+01 1.133002714224e+01 1.131989224547e+01 1.131454934191e+01 -3.817021716765e+01 -3.477352331313e+01 -3.144301847081e+01 -2.815463292497e+01 -2.489749706579e+01 -2.166678641328e+01 -1.845965587189e+01 -1.527436511004e+01 -1.210985611960e+01 -8.965220916907e+00 -5.839906682271e+00 -2.734779869221e+00 3.415348308678e-01 3.415552689145e+00 6.462766821936e+00 9.427082124642e+00 9.376744088524e+00 9.407684439907e+00 9.439158642952e+00 9.470684898056e+00 9.501941663965e+00 9.532710479771e+00 9.562841708154e+00 9.592228953171e+00 9.620796988257e+00 9.648491036273e+00 9.675286888689e+00 9.701234544894e+00 9.726631598615e+00 9.752610796816e+00 9.784013291309e+00 -3.195814174808e+01 -2.928104532483e+01 -2.664575275786e+01 -2.402821548689e+01 -2.141764957948e+01 -1.881007580086e+01 -1.620368437172e+01 -1.359776640068e+01 -1.099222430528e+01 -8.387063831658e+00 -5.782612296087e+00 -3.180346879580e+00 -5.882281422447e-01 2.015255303817e+00 4.608861945827e+00 7.145719494234e+00 7.163445353283e+00 7.248125977374e+00 7.331654297011e+00 7.413608667502e+00 7.493721462107e+00 7.571831514906e+00 7.647836982641e+00 7.721684316752e+00 7.793345431455e+00 7.862817768856e+00 7.930125182596e+00 7.995391145974e+00 8.059048767074e+00 8.122593022333e+00 8.192215310291e+00 -2.574550753630e+01 -2.378869368047e+01 -2.184867368323e+01 -1.990199912572e+01 -1.793800365661e+01 -1.595355942602e+01 -1.394787861823e+01 -1.192127908448e+01 -9.874625074743e+00 -7.808839607340e+00 -5.725127967760e+00 -3.625608925187e+00 -1.517604261211e+00 6.153235496739e-01 2.756629796290e+00 4.860223994335e+00 4.950657609533e+00 5.089012211228e+00 5.224539192513e+00 5.356867703528e+00 5.485791967166e+00 5.611197276144e+00 5.733036806573e+00 5.851303557955e+00 5.966022248756e+00 6.077230429283e+00 6.185011009337e+00 6.289550484230e+00 6.391413749151e+00 6.492443584467e+00 6.600183830306e+00 -1.977074781189e+01 -1.850764382189e+01 -1.723613966107e+01 -1.593446582797e+01 -1.459214799780e+01 -1.320687265948e+01 -1.177882571513e+01 -1.030929660720e+01 -8.800080678860e+00 -7.252974566366e+00 -5.670032862331e+00 -4.053986961476e+00 -2.411547040867e+00 -7.311257441971e-01 9.734745222385e-01 2.666759671420e+00 2.822293030496e+00 3.012223351375e+00 3.197785374860e+00 3.378625355093e+00 3.554558299166e+00 3.725514348304e+00 3.891492226965e+00 4.052532994094e+00 4.208701196093e+00 4.360090157569e+00 4.506824040172e+00 4.649156773927e+00 4.787775905621e+00 4.924852517242e+00 5.069216657810e+00 -1.426251340809e+01 -1.364103960345e+01 -1.298562744224e+01 -1.227829153399e+01 -1.150884726331e+01 -1.067572732959e+01 -9.780007865582e+00 -8.823875118230e+00 -7.809964197017e+00 -6.740886076726e+00 -5.619474548775e+00 -4.449014759998e+00 -3.235647421434e+00 -1.972261466397e+00 -6.700037876113e-01 6.449705697909e-01 8.607274131076e-01 1.098233641823e+00 1.329919693182e+00 1.555450823660e+00 1.774687886180e+00 1.987600834276e+00 2.194235261019e+00 2.394674077812e+00 2.589026757024e+00 2.777425218082e+00 2.960041139870e+00 3.137179582583e+00 3.309631069781e+00 3.479834568011e+00 3.657804694812e+00 -9.430655167326e+00 -9.376570688285e+00 -9.260784514519e+00 -9.074008655823e+00 -8.806599656711e+00 -8.457552277663e+00 -8.028629502490e+00 -7.522705484085e+00 -6.943068644462e+00 -6.292995425372e+00 -5.576016995770e+00 -4.795946173361e+00 -3.958481107589e+00 -3.060483863805e+00 -2.110808721893e+00 -1.127459802275e+00 -8.589230231167e-01 -5.798123963556e-01 -3.078030629015e-01 -4.318649188695e-02 2.139412602413e-01 4.635947204028e-01 7.058513646585e-01 9.408309784745e-01 1.168678237640e+00 1.389555894767e+00 1.603664402271e+00 1.811340821127e+00 2.013421779302e+00 2.212535543600e+00 2.419733518546e+00 -5.454108721943e+00 -5.881152012442e+00 -6.208638210640e+00 -6.447531176649e+00 -6.590273778087e+00 -6.636786526688e+00 -6.589740673276e+00 -6.452786876670e+00 -6.229785549779e+00 -5.924421008077e+00 -5.540525418006e+00 -5.082056148094e+00 -4.554080392255e+00 -3.956520821592e+00 -3.296237884973e+00 -2.584067283432e+00 -2.271126862854e+00 -1.957173559961e+00 -1.651449064725e+00 -1.354282228218e+00 -1.065755342386e+00 -7.858147066525e-01 -5.143288078924e-01 -2.511218389497e-01 4.002952849500e-03 2.512451847064e-01 4.908226974886e-01 7.230667779908e-01 9.488210727550e-01 1.170868287968e+00 1.401110496234e+00 -2.449808757796e+00 -3.279991991213e+00 -3.948398814601e+00 -4.509453434887e+00 -4.960047523400e+00 -5.300540048669e+00 -5.534227647254e+00 -5.666013647543e+00 -5.701219565398e+00 -5.644909242194e+00 -5.502078508376e+00 -5.277464754999e+00 -4.976076687479e+00 -4.600314585354e+00 -4.155669951722e+00 -3.649120311070e+00 -3.306691826828e+00 -2.969581118186e+00 -2.641279243850e+00 -2.321971159512e+00 -2.011694616792e+00 -1.710407517571e+00 -1.418030925039e+00 -1.134479260025e+00 -8.596712818252e-01 -5.935330710327e-01 -3.359646910063e-01 -8.667583308913e-02 1.553249415511e-01 3.932180018386e-01 6.388032841467e-01 -5.970203254299e-01 -1.699541272354e+00 -2.575484356512e+00 -3.329961452378e+00 -3.973729961075e+00 -4.508865672768e+00 -4.935763573797e+00 -5.255440177727e+00 -5.470255677445e+00 -5.583701356444e+00 -5.600244700657e+00 -5.524879554473e+00 -5.363017367056e+00 -5.119139367098e+00 -4.798230582682e+00 -4.402258390864e+00 -4.026158878271e+00 -3.663122162035e+00 -3.311313167249e+00 -2.970809687441e+00 -2.641497833470e+00 -2.323161886082e+00 -2.015518713465e+00 -1.718213568568e+00 -1.430804393375e+00 -1.152694434590e+00 -8.829782298418e-01 -6.201521756975e-01 -3.615476396384e-01 -1.022024381899e-01 1.686498149818e-01 1.599681115503e+00 -4.055052720343e-02 -1.323304127761e+00 -2.379294543452e+00 -3.186577738694e+00 -3.789918321956e+00 -4.235842589778e+00 -4.558719775461e+00 -4.781201997643e+00 -4.915531680082e+00 -4.969006013834e+00 -4.946064337187e+00 -4.849632154478e+00 -4.682751864217e+00 -4.452721275453e+00 -4.168242920161e+00 -3.859238747285e+00 -3.544121241052e+00 -3.224461519065e+00 -2.904216678098e+00 -2.585391972269e+00 -2.269005058626e+00 -1.955543363570e+00 -1.645262218431e+00 -1.338469758094e+00 -1.036088024870e+00 -7.408252285993e-01 -4.599669497465e-01 -2.123190155091e-01 -4.608216596682e-02 -1.190705792280e-01 
        </DataArray>
        <DataArray type="Float64" Name="STRAIN_XX" format="ascii">
          -6.673333016266e-04 -6.238840179693e-04 -5.819699465367e-04 -5.414393089211e-04 -5.022069036698e-04 -4.641998791367e-04 -4.273519683397e-04 -3.916047180346e-04 -3.569061033827e-04 -3.232070822751e-04 -2.904634258774e-04 -2.586438790715e-04 -2.277804809162e-04 -1.976267795254e-04 -1.683481541545e-04 -1.403777681843e-04 -1.369687918804e-04 -1.330258098963e-04 -1.292010216230e-04 -1.254923135624e-04 -1.218969707195e-04 -1.184119176259e-04 -1.150339032379e-04 -1.117596185812e-04 -1.085857753110e-04 -1.055091691142e-04 -1.025267325195e-04 -9.963552818541e-05 -9.683265515418e-05 -9.411486521128e-05 -9.147638267254e-05 -6.591854081032e-04 -6.162208920205e-04 -5.747802191711e-04 -5.347043720903e-04 -4.959094089799e-04 -4.583235755209e-04 -4.218815015597e-04 -3.865254960030e-04 -3.522042267031e-04 -3.188693097199e-04 -2.864771008861e-04 -2.549968133561e-04 -2.244603273434e-04 -1.946237143438e-04 -1.656509080344e-04 -1.379710483845e-04 -1.346146164011e-04 -1.307287616254e-04 -1.269593403206e-04 -1.233042784640e-04 -1.197609107174e-04 -1.163262195886e-04 -1.129970152287e-04 -1.097700292614e-04 -1.066420242009e-04 -1.036098619937e-04 -1.006705238899e-04 -9.782114489449e-05 -9.505898907507e-05 -9.238120429427e-05 -8.978350380318e-05 -6.350548602088e-04 -5.935260342381e-04 -5.534873597534e-04 -5.147584060224e-04 -4.772589713655e-04 -4.409205110397e-04 -4.056803379194e-04 -3.714830441241e-04 -3.382793214963e-04 -3.060227167215e-04 -2.746713439293e-04 -2.441957887956e-04 -2.146274705437e-04 -1.857299323553e-04 -1.576628418688e-04 -1.308433981532e-04 -1.276425779224e-04 -1.239258966823e-04 -1.203204484614e-04 -1.168242559896e-04 -1.134348314876e-04 -1.101492923051e-04 -1.069646284242e-04 -1.038777102091e-04 -1.008854824045e-04 -9.798492840572e-05 -9.517322667669e-05 -9.244772490456e-05 -8.980614866722e-05 -8.724683260514e-05 -8.476993571835e-05 -5.958690476982e-04 -5.566716896136e-04 -5.189097243271e-04 -4.823680082139e-04 -4.469723766945e-04 -4.126595515646e-04 -3.793711551265e-04 -3.470555013139e-04 -3.156665673063e-04 -2.851610597952e-04 -2.554998919676e-04 -2.266559452006e-04 -1.986598288871e-04 -1.712872766515e-04 -1.446909673200e-04 -1.192687731989e-04 -1.163206267819e-04 -1.128786894077e-04 -1.095394899410e-04 -1.063013039717e-04 -1.031618436664e-04 -1.001185308025e-04 -9.716856390410e-05 -9.430912088198e-05 -9.153735469022e-05 -8.885054035871e-05 -8.624609178989e-05 -8.372176596751e-05 -8.127598433811e-05 -7.890906984810e-05 -7.662836831553e-05 -5.431339284728e-04 -5.070743050250e-04 -4.723762541496e-04 -4.387780446624e-04 -4.062136660916e-04 -3.746268789207e-04 -3.439651318415e-04 -3.141817328618e-04 -2.852350887764e-04 -2.570861363057e-04 -2.296996116829e-04 -2.030514253228e-04 -1.771711379361e-04 -1.518508444889e-04 -1.272338832062e-04 -1.036920286914e-04 -1.010839218956e-04 -9.801169761358e-05 -9.503081843886e-05 -9.213981883841e-05 -8.933676078255e-05 -8.661939742636e-05 -8.398529295147e-05 -8.143195545053e-05 -7.895688889998e-05 -7.655769643647e-05 -7.423216961796e-05 -7.197856399291e-05 -6.979629186733e-05 -6.768831159812e-05 -6.567171793254e-05 -4.788761631009e-04 -4.466400828747e-04 -4.156753784702e-04 -3.856638192826e-04 -3.565493250921e-04 -3.282842070822e-04 -3.008230423642e-04 -2.741252057621e-04 -2.481545070455e-04 -2.228770318752e-04 -1.982621591740e-04 -1.742894787886e-04 -1.509873038174e-04 -1.281676625904e-04 -1.059625127462e-04 -8.471180068837e-05 -8.251799436824e-05 -7.989624191806e-05 -7.735195699372e-05 -7.488399466278e-05 -7.249083790104e-05 -7.017063461894e-05 -6.792140256715e-05 -6.574104190840e-05 -6.362749857058e-05 -6.157876584186e-05 -5.959310741593e-05 -5.766936245995e-05 -5.580818357002e-05 -5.401573750912e-05 -5.232110032298e-05 -4.055650422123e-04 -3.776915262099e-04 -3.509860992406e-04 -3.250665150059e-04 -2.998879771367e-04 -2.754125510568e-04 -2.516028829316e-04 -2.284252947695e-04 -2.058497322259e-04 -1.838481937249e-04 -1.623953532357e-04 -1.414750751766e-04 -1.211142174397e-04 -1.011475782364e-04 -8.169402256760e-05 -6.305734954059e-05 -6.133626621492e-05 -5.922850367457e-05 -5.718233545024e-05 -5.519703304841e-05 -5.327150948134e-05 -5.140442630431e-05 -4.959426149837e-05 -4.783942667951e-05 -4.613831013685e-05 -4.448940755795e-05 -4.289146649516e-05 -4.134405829890e-05 -3.984919217375e-05 -3.841678388695e-05 -3.708968443726e-05 -3.260192665452e-04 -3.028795761593e-04 -2.807952056864e-04 -2.593152410532e-04 -2.384071403654e-04 -2.180435122655e-04 -1.981957898835e-04 -1.788378376024e-04 -1.599462888857e-04 -1.414995325904e-04 -1.234779817110e-04 -1.058700088546e-04 -8.870078810420e-05 -7.182973968425e-05 -5.536156337414e-05 -3.956140333544e-05 -3.835296303075e-05 -3.680272681739e-05 -3.529699739415e-05 -3.383539896761e-05 -3.241730138911e-05 -3.104187882062e-05 -2.970814141594e-05 -2.841500943506e-05 -2.716139188675e-05 -2.594629737997e-05 -2.476903016046e-05 -2.362992823368e-05 -2.253252758096e-05 -2.149083628796e-05 -2.056292996888e-05 -2.432931811492e-04 -2.250779990819e-04 -2.077996074854e-04 -1.909370522302e-04 -1.744704445072e-04 -1.583832867513e-04 -1.426560867364e-04 -1.272704945056e-04 -1.122100907778e-04 -9.745987248260e-05 -8.300622110554e-05 -6.884229653574e-05 -5.499178079966e-05 -4.133983943614e-05 -2.797727162034e-05 -1.512598518087e-05 -1.445358514670e-05 -1.348249355917e-05 -1.253804948646e-05 -1.162040137231e-05 -1.072948208417e-05 -9.864967611443e-06 -9.026411707633e-06 -8.213243671830e-06 -7.424909033657e-06 -6.660919470889e-06 -5.921177565833e-06 -5.206788875212e-06 -4.522929607411e-06 -3.887951971622e-06 -3.376249381789e-06 -1.605651199075e-04 -1.472760853644e-04 -1.348030308293e-04 -1.225574624699e-04 -1.105320326744e-04 -9.872101992667e-05 -8.711401916639e-05 -7.570051608290e-05 -6.447103445283e-05 -5.341727931101e-05 -4.253166037247e-05 -3.181223494241e-05 -2.128115458381e-05 -1.084932592567e-05 -5.877199972316e-07 9.298416217730e-06 9.453812084044e-06 9.843202189379e-06 1.022458977215e-05 1.059702251862e-05 1.095988891566e-05 1.131284361522e-05 1.165577196827e-05 1.198863165446e-05 1.231145443370e-05 1.262416726599e-05 1.292629361200e-05 1.321588167526e-05 1.348614846895e-05 1.371418427271e-05 1.380851613381e-05 -8.101091097396e-05 -7.246107632882e-05 -6.460752472336e-05 -5.680120501405e-05 -4.904654367876e-05 -4.134778589662e-05 -3.370325818841e-05 -2.611000329156e-05 -1.856515611897e-05 -1.106668450168e-05 -3.612641719364e-06 3.794512825543e-06 1.113436276093e-05 1.847132558768e-05 2.574814343326e-05 3.279808620886e-05 3.243814813648e-05 3.227094529401e-05 3.211232583817e-05 3.196121469386e-05 3.181664632841e-05 3.167785331313e-05 3.154420428940e-05 3.141519031642e-05 3.129032745800e-05 3.116904539478e-05 3.105028854256e-05 3.093132483093e-05 3.080368604788e-05 3.063983044513e-05 3.033025696780e-05 -7.677126792672e-06 -3.502210049577e-06 9.392291167566e-08 3.807577272144e-06 7.624336078162e-06 1.153183344438e-05 1.552384701176e-05 1.959608986499e-05 2.374507202241e-05 2.796695267841e-05 3.225845404294e-05 3.661285750598e-05 4.101114562710e-05 4.549499259652e-05 5.001921800853e-05 5.445910636432e-05 5.362406179209e-05 5.294295566255e-05 5.228608007430e-05 5.165208990023e-05 5.103962448368e-05 5.044744853387e-05 4.987445886726e-05 4.931965247591e-05 4.878207137395e-05 4.826064838904e-05 4.775380233573e-05 4.725802548710e-05 4.676320659435e-05 4.623687533119e-05 4.554964386388e-05 5.660865110905e-05 5.694156802197e-05 5.681605012188e-05 5.694663693301e-05 5.731249643126e-05 5.789816124484e-05 5.869172064797e-05 5.968109546815e-05 6.085514094622e-05 6.220359578946e-05 6.371875073006e-05 6.539132179351e-05 6.720518698840e-05 6.918340560991e-05 7.129173772186e-05 7.344308190016e-05 7.219291746900e-05 7.106366044506e-05 6.997228833484e-05 6.891679280041e-05 6.789529532383e-05 6.690614804795e-05 6.594788344847e-05 6.501917303258e-05 6.411873243784e-05 6.324517499485e-05 6.239657235949e-05 6.156886221029e-05 6.075029816870e-05 5.990247083878e-05 5.887116974408e-05 1.094584006401e-04 1.066077558320e-04 1.034611614656e-04 1.006550999728e-04 9.815008106837e-05 9.594810999563e-05 9.406056470149e-05 9.248810673954e-05 9.122028278602e-05 9.023801447581e-05 8.951964754671e-05 8.904155893030e-05 8.877837555921e-05 8.872988840828e-05 8.886646664381e-05 8.913408070329e-05 8.752599418816e-05 8.600863978272e-05 8.454129642263e-05 8.312279492087e-05 8.175131694998e-05 8.042482114608e-05 7.914121600859e-05 7.789846000145e-05 7.669460040059e-05 7.552769746748e-05 7.439531218210e-05 7.329239752154e-05 7.220387782905e-05 7.108015585484e-05 6.972985912968e-05 1.481306514835e-04 1.425551162382e-04 1.372508797350e-04 1.326980652803e-04 1.286131506760e-04 1.248153602369e-04 1.212275744742e-04 1.178413645495e-04 1.146785802934e-04 1.117664379933e-04 1.091321456327e-04 1.067939985920e-04 1.047615803434e-04 1.030431725047e-04 1.016254683961e-04 1.004721762765e-04 9.861021893288e-05 9.683683858289e-05 9.512725694841e-05 9.347571473421e-05 9.187808794802e-05 9.033139829802e-05 8.883347547617e-05 8.738270770897e-05 8.597776314705e-05 8.461701987331e-05 8.329702363235e-05 8.200825715520e-05 8.072362200518e-05 7.936717453335e-05 7.769893926538e-05 1.827783025176e-04 1.731534308338e-04 1.628837744166e-04 1.536952741411e-04 1.458491007332e-04 1.392640279779e-04 1.337596672502e-04 1.291343720956e-04 1.252009082752e-04 1.218076729768e-04 1.188374111867e-04 1.161972628103e-04 1.138176288209e-04 1.116489576715e-04 1.096508360682e-04 1.077857516590e-04 1.058245213546e-04 1.039071054178e-04 1.020409064049e-04 1.002282942179e-04 9.846981795446e-05 9.676470998771e-05 9.511100473994e-05 9.350538731077e-05 9.194271466451e-05 9.041495353782e-05 8.890910829828e-05 8.740327948258e-05 8.585907217872e-05 8.420680475018e-05 8.230424747461e-05 1.608136947585e-04 1.612452385606e-04 1.604929030715e-04 1.584669050866e-04 1.552225122210e-04 1.510659616206e-04 1.463411389976e-04 1.413507641093e-04 1.363389238560e-04 1.314807198157e-04 1.268947029896e-04 1.226637321217e-04 1.188409963336e-04 1.154605652989e-04 1.125527631132e-04 1.101757528534e-04 1.080711231495e-04 1.060300117433e-04 1.040667719670e-04 1.021765067772e-04 1.003537347807e-04 9.859408690355e-05 9.689494800117e-05 9.525606007853e-05 9.368067975574e-05 9.217816184355e-05 9.076973318862e-05 8.950174013785e-05 8.847728157613e-05 8.793470743085e-05 8.850914361815e-05 
        </DataArray>
        <DataArray type="Float64" Name="STRAIN_XY" format="ascii">
          -7.962872220154e-06 -5.365286165760e-06 -3.626489238610e-06 -2.409292602241e-06 -1.561533171599e-06 -9.739700482142e-07 -5.675648657713e-07 -2.861939540337e-07 -8.905008211851e-08 5.327106576774e-08 1.621508245714e-07 2.556281368469e-07 3.455067712065e-07 4.552549798073e-07 5.956426883150e-07 7.693883040317e-07 5.366150198555e-07 3.797215639723e-07 2.684598262852e-07 1.901552890770e-07 1.359199276812e-07 9.960297218616e-08 7.701772138696e-08 6.545310191162e-08 6.331286544533e-08 6.987516464812e-08 8.514743955481e-08 1.096720665607e-07 1.440703299454e-07 1.876517308291e-07 2.318433953133e-07 -1.655181588157e-04 -1.555945340227e-04 -1.459913796072e-04 -1.367604398854e-04 -1.278787541608e-04 -1.193262331399e-04 -1.110852992505e-04 -1.031404804102e-04 -9.547788282052e-05 -8.808428217246e-05 -8.094766054583e-05 -7.405857037659e-05 -6.742017960644e-05 -6.098131644664e-05 -5.477145027345e-05 -4.887300289403e-05 -4.780546869290e-05 -4.664539857761e-05 -4.552117883346e-05 -4.443187043655e-05 -4.337641793971e-05 -4.235374713285e-05 -4.136274166586e-05 -4.040233119611e-05 -3.947146450396e-05 -3.856909663687e-05 -3.769417176935e-05 -3.684545065015e-05 -3.602088046855e-05 -3.521574249594e-05 -3.441358026416e-05 -3.246791807370e-04 -3.052085579022e-04 -2.863719114042e-04 -2.682650321560e-04 -2.508430492984e-04 -2.340666937380e-04 -2.179015269231e-04 -2.023172015439e-04 -1.872864870102e-04 -1.727834188382e-04 -1.587844360042e-04 -1.452710033641e-04 -1.322493411383e-04 -1.196190631363e-04 -1.074379986208e-04 -9.586783097768e-05 -9.377377455037e-05 -9.149822397280e-05 -8.929299713441e-05 -8.715624775023e-05 -8.508592108783e-05 -8.307987083922e-05 -8.113596457462e-05 -7.925206322363e-05 -7.742611074059e-05 -7.565607034284e-05 -7.393987313928e-05 -7.227506601061e-05 -7.065774231683e-05 -6.907880870595e-05 -6.750673235024e-05 -4.713704151491e-04 -4.430914096003e-04 -4.157463908847e-04 -3.894599358448e-04 -3.641673266325e-04 -3.398118697172e-04 -3.163436956764e-04 -2.937187763971e-04 -2.718975551843e-04 -2.508423808425e-04 -2.305190136272e-04 -2.109005685258e-04 -1.919960538327e-04 -1.736597619035e-04 -1.559756438319e-04 -1.391785445869e-04 -1.361383650837e-04 -1.328347967620e-04 -1.296333265411e-04 -1.265312792628e-04 -1.235256537751e-04 -1.206133555509e-04 -1.177912541591e-04 -1.150562834846e-04 -1.124054300764e-04 -1.098357578564e-04 -1.073442665224e-04 -1.049274592223e-04 -1.025797859001e-04 -1.002885427432e-04 -9.800985732300e-05 -5.999587699877e-04 -5.639431946546e-04 -5.291426068128e-04 -4.956875711035e-04 -4.634965608328e-04 -4.324980249378e-04 -4.026287169152e-04 -3.738326778321e-04 -3.460595341587e-04 -3.192613897924e-04 -2.933946649659e-04 -2.684251544480e-04 -2.443642858101e-04 -2.210266578518e-04 -1.985191450322e-04 -1.771408091611e-04 -1.732712579842e-04 -1.690666435921e-04 -1.649919908868e-04 -1.610438833235e-04 -1.572184963217e-04 -1.535118833214e-04 -1.499200694228e-04 -1.464391502192e-04 -1.430652906122e-04 -1.397947660670e-04 -1.366237821924e-04 -1.335479729954e-04 -1.305605565191e-04 -1.276463052000e-04 -1.247530636181e-04 -7.055074144051e-04 -6.631184441266e-04 -6.222024345173e-04 -5.828656314772e-04 -5.450136023596e-04 -5.085633023970e-04 -4.734407343077e-04 -4.395801924197e-04 -4.069224936138e-04 -3.754112960539e-04 -3.449953401811e-04 -3.156343846930e-04 -2.873418051375e-04 -2.598996719607e-04 -2.334338110186e-04 -2.082960294244e-04 -2.037456224332e-04 -1.988015188453e-04 -1.940102890620e-04 -1.893678563840e-04 -1.848697374600e-04 -1.805112592697e-04 -1.762877938763e-04 -1.721947050372e-04 -1.682275220839e-04 -1.643818604121e-04 -1.606533197483e-04 -1.570368730403e-04 -1.535250697263e-04 -1.501015379903e-04 -1.467111989694e-04 -7.839647117452e-04 -7.368035793145e-04 -6.913483844513e-04 -6.476432687797e-04 -6.055855556320e-04 -5.650846419529e-04 -5.260588409551e-04 -4.884352780664e-04 -4.521481058649e-04 -4.171347550114e-04 -3.833381581779e-04 -3.507137460943e-04 -3.192764119951e-04 -2.887843454001e-04 -2.593775159272e-04 -2.314467483371e-04 -2.263900627988e-04 -2.208964852411e-04 -2.155728566992e-04 -2.104145816309e-04 -2.054166431352e-04 -2.005738932908e-04 -1.958811107833e-04 -1.913332167839e-04 -1.869252190494e-04 -1.826522737560e-04 -1.785095433193e-04 -1.744917151160e-04 -1.705911957773e-04 -1.667923044221e-04 -1.630435680308e-04 -8.323324011746e-04 -7.821734673946e-04 -7.339292259714e-04 -6.875357155602e-04 -6.428874254464e-04 -5.998907071227e-04 -5.584597828228e-04 -5.185175792077e-04 -4.799943336772e-04 -4.428238380265e-04 -4.069455994409e-04 -3.723125093196e-04 -3.389402446058e-04 -3.065718917594e-04 -2.753552131478e-04 -2.457042456099e-04 -2.403351431506e-04 -2.345029165401e-04 -2.288513016363e-04 -2.233753450060e-04 -2.180696806689e-04 -2.129287883754e-04 -2.079471394155e-04 -2.031193050948e-04 -1.984399950148e-04 -1.939040999164e-04 -1.895065805487e-04 -1.852421232067e-04 -1.811038024368e-04 -1.770786303854e-04 -1.731265558435e-04 -8.487522059390e-04 -7.974778530792e-04 -7.483071873605e-04 -7.010128216759e-04 -6.554925301175e-04 -6.116545059651e-04 -5.694125540252e-04 -5.286883139966e-04 -4.894104666207e-04 -4.515113828155e-04 -4.149290349969e-04 -3.796151579735e-04 -3.455852147772e-04 -3.125773568351e-04 -2.807435597399e-04 -2.505063036277e-04 -2.450429218275e-04 -2.390986067097e-04 -2.333374646252e-04 -2.277547971853e-04 -2.223453995837e-04 -2.171037738221e-04 -2.120244089896e-04 -2.071018093749e-04 -2.023306566185e-04 -1.977057835992e-04 -1.932222462564e-04 -1.888751056207e-04 -1.846589573844e-04 -1.805659433977e-04 -1.765766870293e-04 -8.326057855972e-04 -7.821218361271e-04 -7.339216150678e-04 -6.875460288766e-04 -6.429026769468e-04 -5.999068897821e-04 -5.584761414417e-04 -5.185342227373e-04 -4.800112659390e-04 -4.428412241784e-04 -4.069632480009e-04 -3.723304663264e-04 -3.389580438294e-04 -3.065897332961e-04 -2.753603902600e-04 -2.457594863156e-04 -2.403469624432e-04 -2.345128744383e-04 -2.288599734808e-04 -2.233830136340e-04 -2.180765072554e-04 -2.129349161236e-04 -2.079526696439e-04 -2.031243457928e-04 -1.984446556063e-04 -1.939086017502e-04 -1.895114668671e-04 -1.852491264547e-04 -1.811185901265e-04 -1.771199845077e-04 -1.732653786865e-04 -7.845466501608e-04 -7.367096976279e-04 -6.913446635273e-04 -6.476746070287e-04 -6.056252530087e-04 -5.651236830008e-04 -5.260948906572e-04 -4.884681510902e-04 -4.521777854353e-04 -4.171615953651e-04 -3.833618437646e-04 -3.507345375489e-04 -3.192938390082e-04 -2.887995679298e-04 -2.593797590237e-04 -2.315019248840e-04 -2.264023353848e-04 -2.209075372261e-04 -2.155835112010e-04 -2.104249489554e-04 -2.054267012242e-04 -2.005835652260e-04 -1.958903958046e-04 -1.913421264374e-04 -1.869338818429e-04 -1.826610387006e-04 -1.785195426977e-04 -1.745065355797e-04 -1.706226926080e-04 -1.668795284861e-04 -1.633340727147e-04 -7.064494165357e-04 -6.629756017121e-04 -6.222019067596e-04 -5.829134568237e-04 -5.450721908372e-04 -5.086208957846e-04 -4.734930105335e-04 -4.396259784022e-04 -4.069620878734e-04 -3.754467460071e-04 -3.450277400587e-04 -3.156652258670e-04 -2.873703316963e-04 -2.599266630170e-04 -2.334485433342e-04 -2.083608609130e-04 -2.037645863292e-04 -1.988173572873e-04 -1.940244170595e-04 -1.893807494772e-04 -1.848816140400e-04 -1.805223112149e-04 -1.762981530119e-04 -1.722045721937e-04 -1.682371898367e-04 -1.643919878709e-04 -1.606657358536e-04 -1.570574180248e-04 -1.535727051726e-04 -1.502388325005e-04 -1.471755227488e-04 -6.013083973121e-04 -5.637116586348e-04 -5.291594398835e-04 -4.957675525197e-04 -4.635862889191e-04 -4.325961666557e-04 -4.027350064463e-04 -3.739395141338e-04 -3.461562871805e-04 -3.193414189440e-04 -2.934549448461e-04 -2.684688751578e-04 -2.443954476316e-04 -2.210533168067e-04 -1.985394409807e-04 -1.772173668675e-04 -1.733047707791e-04 -1.690977731964e-04 -1.650205392407e-04 -1.610689784471e-04 -1.572395675050e-04 -1.535287617305e-04 -1.499329701459e-04 -1.464485782453e-04 -1.430721308812e-04 -1.398006034996e-04 -1.366321043246e-04 -1.335681603224e-04 -1.306212734106e-04 -1.278404052802e-04 -1.254354996651e-04 -4.733254040168e-04 -4.426986026451e-04 -4.158852448310e-04 -3.897006149340e-04 -3.643117427893e-04 -3.398581246745e-04 -3.163555991472e-04 -2.937575692533e-04 -2.719966341488e-04 -2.510088346352e-04 -2.307378288596e-04 -2.111471753326e-04 -1.922404154374e-04 -1.738786409963e-04 -1.561459587496e-04 -1.393275389196e-04 -1.361792959498e-04 -1.328411467794e-04 -1.296194936970e-04 -1.265059299548e-04 -1.234942773428e-04 -1.205794126472e-04 -1.177569506193e-04 -1.150231035601e-04 -1.123746861409e-04 -1.098093109838e-04 -1.073261868908e-04 -1.049294244796e-04 -1.026402680216e-04 -1.005404501063e-04 -9.898393353814e-05 -3.271493056709e-04 -3.034312852250e-04 -2.858726940200e-04 -2.688477486729e-04 -2.518964556921e-04 -2.351167348251e-04 -2.186882810165e-04 -2.027404186667e-04 -1.873479327951e-04 -1.725481648103e-04 -1.583409085604e-04 -1.447155731063e-04 -1.316605241505e-04 -1.190694189775e-04 -1.069784903800e-04 -9.561689256484e-05 -9.364562066681e-05 -9.146399060635e-05 -8.932429031054e-05 -8.723185360790e-05 -8.519106112998e-05 -8.320463691982e-05 -8.127380585105e-05 -7.939850285960e-05 -7.757745659706e-05 -7.580838834794e-05 -7.408957812750e-05 -7.242660957172e-05 -7.085676411444e-05 -6.953005778081e-05 -6.906929445468e-05 -1.786284813715e-04 -1.567947331730e-04 -1.431217827034e-04 -1.326579539598e-04 -1.239727242098e-04 -1.162702245506e-04 -1.090551109694e-04 -1.020694354441e-04 -9.519200527346e-05 -8.838009158725e-05 -8.162011288288e-05 -7.494222372820e-05 -6.837680464384e-05 -6.191903390631e-05 -5.563025025944e-05 -4.968941863961e-05 -4.826495356573e-05 -4.693250519951e-05 -4.569356576003e-05 -4.452142969129e-05 -4.340002587931e-05 -4.231829129581e-05 -4.126804051590e-05 -4.024341163690e-05 -3.924165434558e-05 -3.826653046318e-05 -3.733746915002e-05 -3.651319237715e-05 -3.595327123413e-05 -3.608099439337e-05 -3.818727500698e-05 1.817601430355e-05 -6.007168740489e-06 -1.232309590637e-05 -1.322606027709e-05 -1.176724796434e-05 -9.370502323609e-06 -6.804168062888e-06 -4.440806837604e-06 -2.453804012623e-06 -8.962421706339e-07 2.419224102115e-07 1.029130762063e-06 1.512625787954e-06 1.799597759093e-06 1.975545651729e-06 2.236943787772e-06 1.546627610520e-06 1.076892765434e-06 7.154394633927e-07 4.195721269241e-07 1.633482961039e-07 -7.110248659746e-08 -2.969208980398e-07 -5.235687006873e-07 -7.560237452614e-07 -9.910139738479e-07 -1.207151837070e-06 -1.340060239662e-06 -1.219110966243e-06 -4.031713988223e-07 2.405699420808e-06 
        </DataArray>
        <DataArray type="Float64" Name="STRAIN_YY" format="ascii">
          1.800598175189e-04 1.722773870726e-04 1.650397739006e-04 1.583176577583e-04 1.520844886942e-04 1.463154235282e-04 1.409871567745e-04 1.360777839464e-04 1.315666716152e-04 1.274343571826e-04 1.236624660566e-04 1.202336153303e-04 1.171309834586e-04 1.143391397863e-04 1.118436865139e-04 1.096355760609e-04 1.075880140432e-04 1.056016963593e-04 1.036791826077e-04 1.018179919608e-04 1.000157406587e-04 9.827014244395e-05 9.657900716981e-05 9.494023822244e-05 9.335182922131e-05 9.181186028629e-05 9.031849401993e-05 8.886997146956e-05 8.746460859345e-05 8.610079457835e-05 8.477696985090e-05 1.800598778985e-04 1.722774314077e-04 1.650398272791e-04 1.583177140326e-04 1.520845455579e-04 1.463154804101e-04 1.409872135915e-04 1.360778407485e-04 1.315667284888e-04 1.274344141941e-04 1.236625232427e-04 1.202336727190e-04 1.171310410748e-04 1.143391976514e-04 1.118437445501e-04 1.096356336912e-04 1.075880712424e-04 1.056017533696e-04 1.036792394222e-04 1.018180485566e-04 1.000157970257e-04 9.827019858271e-05 9.657906305260e-05 9.494029381593e-05 9.335188452397e-05 9.181191528505e-05 9.031854861939e-05 8.887002539483e-05 8.746466091396e-05 8.610084218783e-05 8.477700150656e-05 1.800600617349e-04 1.722775656637e-04 1.650399891459e-04 1.583178845572e-04 1.520847175783e-04 1.463156521883e-04 1.409873849912e-04 1.360780119103e-04 1.315668995755e-04 1.274345853846e-04 1.236626946860e-04 1.202338445398e-04 1.171312134105e-04 1.143393705909e-04 1.118439178292e-04 1.096358054699e-04 1.075882414572e-04 1.056019228167e-04 1.036794081518e-04 1.018182164998e-04 1.000159641157e-04 9.827036476352e-05 9.657922828973e-05 9.494045808786e-05 9.335204778672e-05 9.181207745439e-05 9.031870945898e-05 8.887018405376e-05 8.746481453025e-05 8.610098125332e-05 8.477709142737e-05 1.800603774813e-04 1.722777935447e-04 1.650402646152e-04 1.583181743003e-04 1.520850090774e-04 1.463159424100e-04 1.409876736698e-04 1.360782993267e-04 1.315671860639e-04 1.274348712284e-04 1.236629801745e-04 1.202341299068e-04 1.171314989072e-04 1.143396563854e-04 1.118442034891e-04 1.096360877859e-04 1.075885204233e-04 1.056021998196e-04 1.036796833031e-04 1.018184897214e-04 1.000162353256e-04 9.827063388104e-05 9.657949528108e-05 9.494072293044e-05 9.335231044601e-05 9.181233780405e-05 9.031896707920e-05 8.887043746790e-05 8.746505875092e-05 8.610119961277e-05 8.477722319644e-05 1.800608416643e-04 1.722781229524e-04 1.650406642197e-04 1.583185935594e-04 1.520854289750e-04 1.463163583264e-04 1.409880851876e-04 1.360787068820e-04 1.315675901787e-04 1.274352724384e-04 1.236633789262e-04 1.202345265581e-04 1.171318938417e-04 1.143400499429e-04 1.118445950431e-04 1.096364725590e-04 1.075888986689e-04 1.056025737355e-04 1.036800530994e-04 1.018188553693e-04 1.000165967699e-04 9.827099111474e-05 9.657984829480e-05 9.494107174052e-05 9.335265503609e-05 9.181267805977e-05 9.031930241006e-05 8.887076569458e-05 8.746537232997e-05 8.610147331857e-05 8.477736502968e-05 1.800614801481e-04 1.722785655963e-04 1.650412040426e-04 1.583191578545e-04 1.520859904444e-04 1.463169103727e-04 1.409886272446e-04 1.360792394755e-04 1.315681139048e-04 1.274357878637e-04 1.236638865969e-04 1.202350270621e-04 1.171323879838e-04 1.143405384545e-04 1.118450773162e-04 1.096369421014e-04 1.075893566380e-04 1.056030235204e-04 1.036804952386e-04 1.018192899454e-04 1.000170237949e-04 9.827141062234e-05 9.658026036937e-05 9.494147647513e-05 9.335305249766e-05 9.181306810646e-05 9.031968422975e-05 8.887113620157e-05 8.746572080582e-05 8.610176368402e-05 8.477746552230e-05 1.800623160553e-04 1.722791220525e-04 1.650418913625e-04 1.583198726022e-04 1.520866935150e-04 1.463175920270e-04 1.409892866591e-04 1.360798778915e-04 1.315687332613e-04 1.274363904949e-04 1.236644750591e-04 1.202356037843e-04 1.171329552020e-04 1.143410976927e-04 1.118456279944e-04 1.096374752178e-04 1.075898726263e-04 1.056035267549e-04 1.036809859499e-04 1.018197678172e-04 1.000174885913e-04 9.827186224292e-05 9.658069887396e-05 9.494190198925e-05 9.335346515968e-05 9.181346780501e-05 9.032006995700e-05 8.887150373719e-05 8.746605522346e-05 8.610201446526e-05 8.477744756036e-05 1.800633687713e-04 1.722797613176e-04 1.650427015900e-04 1.583207149589e-04 1.520875192065e-04 1.463183923691e-04 1.409900638318e-04 1.360806352656e-04 1.315694730844e-04 1.274371136298e-04 1.236651807499e-04 1.202362901252e-04 1.171336204245e-04 1.143417409998e-04 1.118462479720e-04 1.096380580385e-04 1.075904181479e-04 1.056040458419e-04 1.036814815607e-04 1.018202406838e-04 1.000179386036e-04 9.827228919260e-05 9.658110251133e-05 9.494228221005e-05 9.335382188167e-05 9.181380075843e-05 9.032037764629e-05 8.887178034552e-05 8.746627989503e-05 8.610211636257e-05 8.477716623207e-05 1.800648677912e-04 1.722806813594e-04 1.650438630724e-04 1.583219065268e-04 1.520886613815e-04 1.463194649570e-04 1.409910643017e-04 1.360815653378e-04 1.315703365044e-04 1.274379161705e-04 1.236659307822e-04 1.202369986408e-04 1.171343006518e-04 1.143424062968e-04 1.118469043559e-04 1.096387146083e-04 1.075909992881e-04 1.056045487765e-04 1.036819098728e-04 1.018206000836e-04 1.000182353555e-04 9.827252913371e-05 9.658129090152e-05 9.494242342557e-05 9.335391938578e-05 9.181385658971e-05 9.032039119167e-05 8.887174374625e-05 8.746616296815e-05 8.610181621174e-05 8.477630676963e-05 1.800666867246e-04 1.722816666235e-04 1.650452221357e-04 1.583233297763e-04 1.520900348949e-04 1.463207630880e-04 1.409922863203e-04 1.360827133715e-04 1.315714103435e-04 1.274389121277e-04 1.236668403156e-04 1.202378068900e-04 1.171349849692e-04 1.143429362004e-04 1.118472590531e-04 1.096386393576e-04 1.075908819805e-04 1.056044060954e-04 1.036817380919e-04 1.018203973643e-04 1.000180010264e-04 9.827226316977e-05 9.658099355310e-05 9.494209515921e-05 9.335356044161e-05 9.181346656283e-05 9.031996698196e-05 8.887127298520e-05 8.746560183658e-05 8.610101571583e-05 8.477471617056e-05 1.800685668351e-04 1.722821939789e-04 1.650462437686e-04 1.583243704968e-04 1.520909146056e-04 1.463214381527e-04 1.409927611478e-04 1.360830040398e-04 1.315715344311e-04 1.274388891707e-04 1.236666953416e-04 1.202375734516e-04 1.171347073579e-04 1.143426627200e-04 1.118470271076e-04 1.096383979598e-04 1.075905452713e-04 1.056040243599e-04 1.036813234147e-04 1.018199529337e-04 1.000175273988e-04 9.827176037762e-05 9.658046172951e-05 9.494153449916e-05 9.335297111088e-05 9.181284761972e-05 9.031931325458e-05 8.887056468571e-05 8.746477026199e-05 8.609982921218e-05 8.477232050004e-05 1.800686325500e-04 1.722803673920e-04 1.650454962285e-04 1.583239796428e-04 1.520906129302e-04 1.463211158415e-04 1.409923844585e-04 1.360825866456e-04 1.315711068803e-04 1.274384719386e-04 1.236662862375e-04 1.202371490142e-04 1.171342349701e-04 1.143421140351e-04 1.118463815771e-04 1.096375959487e-04 1.075896270934e-04 1.056030525891e-04 1.036803190132e-04 1.018189269712e-04 1.000164864858e-04 9.827070854966e-05 9.657940118173e-05 9.494046597479e-05 9.335189366533e-05 9.181175729950e-05 9.031819825512e-05 8.886938894764e-05 8.746341810658e-05 8.609791963791e-05 8.476844630108e-05 1.800649961608e-04 1.722738712404e-04 1.650408292463e-04 1.583198655320e-04 1.520870165801e-04 1.463179952633e-04 1.409894958504e-04 1.360796736257e-04 1.315680502327e-04 1.274353097373e-04 1.236631545828e-04 1.202342012757e-04 1.171315797944e-04 1.143397808278e-04 1.118442951339e-04 1.096355021087e-04 1.075874569581e-04 1.056008291097e-04 1.036780503900e-04 1.018166377024e-04 1.000142113526e-04 9.826848471202e-05 9.657726212862e-05 9.493843741217e-05 9.334999044701e-05 9.180997928464e-05 9.031652111845e-05 8.886773640337e-05 8.746156744344e-05 8.609517227043e-05 8.476223802419e-05 1.800406627144e-04 1.722490540192e-04 1.650224334155e-04 1.583014188060e-04 1.520689518222e-04 1.463028466079e-04 1.409788267274e-04 1.360733096568e-04 1.315644918255e-04 1.274325203494e-04 1.236592327568e-04 1.202278133003e-04 1.171221339741e-04 1.143273752112e-04 1.118295393517e-04 1.096191882883e-04 1.075712472521e-04 1.055857228305e-04 1.036645461582e-04 1.018049718441e-04 1.000044636326e-04 9.826064288704e-05 9.657126182214e-05 9.493418535385e-05 9.334737656275e-05 9.180888093353e-05 9.031679692734e-05 8.886918605343e-05 8.746375522825e-05 8.609674096459e-05 8.475793303152e-05 1.800434861510e-04 1.722647121278e-04 1.650824820506e-04 1.583535231685e-04 1.520739526496e-04 1.462462075255e-04 1.408653386292e-04 1.359186112344e-04 1.313882486569e-04 1.272535702240e-04 1.234927444379e-04 1.200841256077e-04 1.170069267745e-04 1.142423514768e-04 1.117732496545e-04 1.095877369259e-04 1.075572421847e-04 1.055834287364e-04 1.036700353983e-04 1.018155619647e-04 1.000183403122e-04 9.827659194699e-05 9.658849250869e-05 9.495222757029e-05 9.336604037968e-05 9.182827077397e-05 9.033735583210e-05 8.889166890107e-05 8.748878309071e-05 8.612284798067e-05 8.477355699540e-05 1.799288047483e-04 1.712347918166e-04 1.637831715614e-04 1.571565353400e-04 1.511679670994e-04 1.456859215436e-04 1.406239723598e-04 1.359305535898e-04 1.315757332529e-04 1.275431135058e-04 1.238241099450e-04 1.204131185628e-04 1.173038777555e-04 1.144898919189e-04 1.119617642409e-04 1.097069519318e-04 1.076212678706e-04 1.056136053333e-04 1.036789778861e-04 1.018119055239e-04 1.000083511903e-04 9.826506639570e-05 9.657926955487e-05 9.494841237955e-05 9.336990112132e-05 9.184059490327e-05 9.035571444675e-05 8.890627861487e-05 8.747280176661e-05 8.600926676050e-05 8.438915338900e-05 1.602391597318e-04 1.608384903455e-04 1.601984523533e-04 1.582801158107e-04 1.551229457836e-04 1.510292833987e-04 1.463467514239e-04 1.413819927378e-04 1.363835453804e-04 1.315303597617e-04 1.269440517134e-04 1.227084662849e-04 1.188789145381e-04 1.154891793055e-04 1.125699146859e-04 1.101765084350e-04 1.080737115409e-04 1.060325140638e-04 1.040689451381e-04 1.021783956824e-04 1.003554246076e-04 9.859561773598e-05 9.689626478522e-05 9.525694967550e-05 9.368064742601e-05 9.217615585167e-05 9.076352243519e-05 8.948644508881e-05 8.844176290772e-05 8.785236966475e-05 8.830809686067e-05 
        </DataArray>
        <DataArray type="Float64" Name="DISPLACEMENT" NumberOfComponents="3" format="ascii">
          3.145766399267e-05 0.000000000000e+00 0.000000000000e+00 3.038209322113e-05 0.000000000000e+00 0.000000000000e+00 2.937884935032e-05 0.000000000000e+00 0.000000000000e+00 2.844509290999e-05 0.000000000000e+00 0.000000000000e+00 2.757832240313e-05 0.000000000000e+00 0.000000000000e+00 2.677624594633e-05 0.000000000000e+00 0.000000000000e+00 2.603674099025e-05 0.000000000000e+00 0.000000000000e+00 2.535782895778e-05 0.000000000000e+00 0.000000000000e+00 2.473765009661e-05 0.000000000000e+00 0.000000000000e+00 2.417444811673e-05 0.000000000000e+00 0.000000000000e+00 2.366655867370e-05 0.000000000000e+00 0.000000000000e+00 2.321238953180e-05 0.000000000000e+00 0.000000000000e+00 2.281035725240e-05 0.000000000000e+00 0.000000000000e+00 2.245902766065e-05 0.000000000000e+00 0.000000000000e+00 2.215706255743e-05 0.000000000000e+00 0.000000000000e+00 2.190313357452e-05 0.000000000000e+00 0.000000000000e+00 2.167271445256e-05 0.000000000000e+00 0.000000000000e+00 2.144881923424e-05 0.000000000000e+00 0.000000000000e+00 2.123128602397e-05 0.000000000000e+00 0.000000000000e+00 2.101994535493e-05 0.000000000000e+00 0.000000000000e+00 2.081462433439e-05 0.000000000000e+00 0.000000000000e+00 2.061514950516e-05 0.000000000000e+00 0.000000000000e+00 2.042134872973e-05 0.000000000000e+00 0.000000000000e+00 2.023305237585e-05 0.000000000000e+00 0.000000000000e+00 2.005009401435e-05 0.000000000000e+00 0.000000000000e+00 1.987231075028e-05 0.000000000000e+00 0.000000000000e+00 1.969954328748e-05 0.000000000000e+00 0.000000000000e+00 1.953163584601e-05 0.000000000000e+00 0.000000000000e+00 1.936843617769e-05 0.000000000000e+00 0.000000000000e+00 1.920979635486e-05 0.000000000000e+00 0.000000000000e+00 1.905557650443e-05 0.000000000000e+00 0.000000000000e+00 3.130620280140e-05 3.083264680588e-06 0.000000000000e+00 3.023580148310e-05 2.977932942011e-06 0.000000000000e+00 2.923739143493e-05 2.879568292805e-06 0.000000000000e+00 2.830813256009e-05 2.788032017680e-06 0.000000000000e+00 2.744553605880e-05 2.703071799007e-06 0.000000000000e+00 2.664732181978e-05 2.624455411960e-06 0.000000000000e+00 2.591137775651e-05 2.551972252481e-06 0.000000000000e+00 2.523573487662e-05 2.485427840619e-06 0.000000000000e+00 2.461854239179e-05 2.424639842623e-06 0.000000000000e+00 2.405805246443e-05 2.369436131268e-06 0.000000000000e+00 2.355260875475e-05 2.319653628395e-06 0.000000000000e+00 2.310062668975e-05 2.275136320769e-06 0.000000000000e+00 2.270053045209e-05 2.235729016294e-06 0.000000000000e+00 2.235089276556e-05 2.201291230417e-06 0.000000000000e+00 2.205038181673e-05 2.171692428290e-06 0.000000000000e+00 2.179767541362e-05 2.146804710656e-06 0.000000000000e+00 2.156836576710e-05 2.124219953366e-06 0.000000000000e+00 2.134554872736e-05 2.102273417184e-06 0.000000000000e+00 2.112906307126e-05 2.080950266333e-06 0.000000000000e+00 2.091874013033e-05 2.060234103416e-06 0.000000000000e+00 2.071440784476e-05 2.040108025429e-06 0.000000000000e+00 2.051589359521e-05 2.020555011122e-06 0.000000000000e+00 2.032302606703e-05 2.001558176754e-06 0.000000000000e+00 2.013563644406e-05 1.983100883705e-06 0.000000000000e+00 1.995355910237e-05 1.965166837732e-06 0.000000000000e+00 1.977663192403e-05 1.947740154917e-06 0.000000000000e+00 1.960469634112e-05 1.930805566720e-06 0.000000000000e+00 1.943759721018e-05 1.914348969700e-06 0.000000000000e+00 1.927518262529e-05 1.898359443707e-06 0.000000000000e+00 1.911730406856e-05 1.882835849963e-06 0.000000000000e+00 1.896381805495e-05 1.867808621361e-06 0.000000000000e+00 3.085327799104e-05 6.136834483662e-06 0.000000000000e+00 2.979833492971e-05 5.927185149076e-06 0.000000000000e+00 2.881437984563e-05 5.731403293224e-06 0.000000000000e+00 2.789857034261e-05 5.549212491848e-06 0.000000000000e+00 2.704845560659e-05 5.380110490703e-06 0.000000000000e+00 2.626179076502e-05 5.223635065283e-06 0.000000000000e+00 2.553649504642e-05 5.079367027752e-06 0.000000000000e+00 2.487062809899e-05 4.946919300064e-06 0.000000000000e+00 2.426236592487e-05 4.825928959577e-06 0.000000000000e+00 2.370998597260e-05 4.716053413477e-06 0.000000000000e+00 2.321185585179e-05 4.616968074599e-06 0.000000000000e+00 2.276641390165e-05 4.528362424492e-06 0.000000000000e+00 2.237210710438e-05 4.449927556437e-06 0.000000000000e+00 2.202752880414e-05 4.381383868104e-06 0.000000000000e+00 2.173136627364e-05 4.322471537276e-06 0.000000000000e+00 2.148231577346e-05 4.272936019546e-06 0.000000000000e+00 2.125632381075e-05 4.227984214051e-06 0.000000000000e+00 2.103673087522e-05 4.184302694857e-06 0.000000000000e+00 2.082337776274e-05 4.141861924054e-06 0.000000000000e+00 2.061609817422e-05 4.100629294500e-06 0.000000000000e+00 2.041472253224e-05 4.060571139946e-06 0.000000000000e+00 2.021908071836e-05 4.021653600946e-06 0.000000000000e+00 2.002900390194e-05 3.983843054164e-06 0.000000000000e+00 1.984432571200e-05 3.947106388711e-06 0.000000000000e+00 1.966488291248e-05 3.911411162736e-06 0.000000000000e+00 1.949051570392e-05 3.876725770909e-06 0.000000000000e+00 1.932106771371e-05 3.843019805449e-06 0.000000000000e+00 1.915638568868e-05 3.810265226119e-06 0.000000000000e+00 1.899631873593e-05 3.778440292274e-06 0.000000000000e+00 1.884071654374e-05 3.747542739627e-06 0.000000000000e+00 1.868942469058e-05 3.717633177125e-06 0.000000000000e+00 3.010325184311e-05 9.131300247439e-06 0.000000000000e+00 2.907390595440e-05 8.819351755303e-06 0.000000000000e+00 2.811388789217e-05 8.528038419376e-06 0.000000000000e+00 2.722035000057e-05 8.256948074095e-06 0.000000000000e+00 2.639090445657e-05 8.005333249732e-06 0.000000000000e+00 2.562336481131e-05 7.772506165876e-06 0.000000000000e+00 2.491570217278e-05 7.557843078654e-06 0.000000000000e+00 2.426602363043e-05 7.360768026721e-06 0.000000000000e+00 2.367254955242e-05 7.180741002366e-06 0.000000000000e+00 2.313359924709e-05 7.017252248054e-06 0.000000000000e+00 2.264757999283e-05 6.869818781557e-06 0.000000000000e+00 2.221296806583e-05 6.737978568661e-06 0.000000000000e+00 2.182824820581e-05 6.621271963409e-06 0.000000000000e+00 2.149204790339e-05 6.519282933887e-06 0.000000000000e+00 2.120308603317e-05 6.431624882707e-06 0.000000000000e+00 2.096008938558e-05 6.357919057567e-06 0.000000000000e+00 2.073959122629e-05 6.291033511810e-06 0.000000000000e+00 2.052533713800e-05 6.226038081900e-06 0.000000000000e+00 2.031717125770e-05 6.162888808841e-06 0.000000000000e+00 2.011493121045e-05 6.101537173567e-06 0.000000000000e+00 1.991845152744e-05 6.041933080579e-06 0.000000000000e+00 1.972756622701e-05 5.984026148304e-06 0.000000000000e+00 1.954211059601e-05 5.927766348948e-06 0.000000000000e+00 1.936192231061e-05 5.873104415846e-06 0.000000000000e+00 1.918684209442e-05 5.819992073124e-06 0.000000000000e+00 1.901671398051e-05 5.768382301029e-06 0.000000000000e+00 1.885138522462e-05 5.718229848990e-06 0.000000000000e+00 1.869070569470e-05 5.669492991381e-06 0.000000000000e+00 1.853452614056e-05 5.622139378045e-06 0.000000000000e+00 1.838269314635e-05 5.576165672144e-06 0.000000000000e+00 1.823503373416e-05 5.531662177199e-06 0.000000000000e+00 2.906334838199e-05 1.203782154109e-05 0.000000000000e+00 2.806949029657e-05 1.162657704936e-05 0.000000000000e+00 2.714266102567e-05 1.124253804461e-05 0.000000000000e+00 2.628000243331e-05 1.088515942053e-05 0.000000000000e+00 2.547921420681e-05 1.055345552681e-05 0.000000000000e+00 2.473819107876e-05 1.024651961840e-05 0.000000000000e+00 2.405497613949e-05 9.963529417445e-06 0.000000000000e+00 2.342774227121e-05 9.703725610928e-06 0.000000000000e+00 2.285477135573e-05 9.466396306204e-06 0.000000000000e+00 2.233444075208e-05 9.250869479035e-06 0.000000000000e+00 2.186521272158e-05 9.056508409583e-06 0.000000000000e+00 2.144561614293e-05 8.882703973358e-06 0.000000000000e+00 2.107418810511e-05 8.728850229831e-06 0.000000000000e+00 2.074960345665e-05 8.594398721453e-06 0.000000000000e+00 2.047062486191e-05 8.478839802951e-06 0.000000000000e+00 2.023602140217e-05 8.381674136922e-06 0.000000000000e+00 2.002313999379e-05 8.293499582480e-06 0.000000000000e+00 1.981628785681e-05 8.207816735221e-06 0.000000000000e+00 1.961531372067e-05 8.124567660837e-06 0.000000000000e+00 1.942006065638e-05 8.043688384545e-06 0.000000000000e+00 1.923036888671e-05 7.965112873909e-06 0.000000000000e+00 1.904607817693e-05 7.888774699006e-06 0.000000000000e+00 1.886702950772e-05 7.814607924665e-06 0.000000000000e+00 1.869306617013e-05 7.742547589256e-06 0.000000000000e+00 1.852403437268e-05 7.672530061992e-06 0.000000000000e+00 1.835978347080e-05 7.604493341630e-06 0.000000000000e+00 1.820016573656e-05 7.538377783214e-06 0.000000000000e+00 1.804503534338e-05 7.474128369693e-06 0.000000000000e+00 1.789424522136e-05 7.411702475043e-06 0.000000000000e+00 1.774763736177e-05 7.351095740698e-06 0.000000000000e+00 1.760501207744e-05 7.292427467222e-06 0.000000000000e+00 2.774358359196e-05 1.482840322069e-05 0.000000000000e+00 2.679475946344e-05 1.432182150696e-05 0.000000000000e+00 2.591005156097e-05 1.384875571148e-05 0.000000000000e+00 2.508658249400e-05 1.340853128981e-05 0.000000000000e+00 2.432216336807e-05 1.299993365975e-05 0.000000000000e+00 2.361479227768e-05 1.262184580124e-05 0.000000000000e+00 2.296260377632e-05 1.227325477367e-05 0.000000000000e+00 2.236385424837e-05 1.195322521857e-05 0.000000000000e+00 2.181690364015e-05 1.166088015807e-05 0.000000000000e+00 2.132020297900e-05 1.139539174449e-05 0.000000000000e+00 2.087228432488e-05 1.115597564040e-05 0.000000000000e+00 2.047174333788e-05 1.094188154740e-05 0.000000000000e+00 2.011718356776e-05 1.075236311856e-05 0.000000000000e+00 1.980733995085e-05 1.058674478589e-05 0.000000000000e+00 1.954103070728e-05 1.044439863713e-05 0.000000000000e+00 1.931707851691e-05 1.032470955735e-05 0.000000000000e+00 1.911386312408e-05 1.021609581013e-05 0.000000000000e+00 1.891640449446e-05 1.011055134496e-05 0.000000000000e+00 1.872455713264e-05 1.000800480380e-05 0.000000000000e+00 1.853817098678e-05 9.908377391164e-06 0.000000000000e+00 1.835709349655e-05 9.811587758963e-06 0.000000000000e+00 1.818117171303e-05 9.717554088978e-06 0.000000000000e+00 1.801025385738e-05 9.626195147021e-06 0.000000000000e+00 1.784419034220e-05 9.537430918362e-06 0.000000000000e+00 1.768283434091e-05 9.451183014812e-06 0.000000000000e+00 1.752604194694e-05 9.367375063792e-06 0.000000000000e+00 1.737367178837e-05 9.285933576383e-06 0.000000000000e+00 1.722558345400e-05 9.206790790079e-06 0.000000000000e+00 1.708163248912e-05 9.129894204695e-06 0.000000000000e+00 1.694165450404e-05 9.055238547477e-06 0.000000000000e+00 1.680541408884e-05 8.982971207266e-06 0.000000000000e+00 2.615666713532e-05 1.747615952410e-05 0.000000000000e+00 2.526198545483e-05 1.687911770589e-05 0.000000000000e+00 2.442792654692e-05 1.632158249081e-05 0.000000000000e+00 2.365157967519e-05 1.580275374060e-05 0.000000000000e+00 2.293089052680e-05 1.532119916894e-05 0.000000000000e+00 2.226398206101e-05 1.487560210327e-05 0.000000000000e+00 2.164909905356e-05 1.446476863173e-05 0.000000000000e+00 2.108459840934e-05 1.408759634999e-05 0.000000000000e+00 2.056893403578e-05 1.374305173711e-05 0.000000000000e+00 2.010064560100e-05 1.343015926734e-05 0.000000000000e+00 1.967834911656e-05 1.314799473283e-05 0.000000000000e+00 1.930072049884e-05 1.289567401654e-05 0.000000000000e+00 1.896644314301e-05 1.267231745390e-05 0.000000000000e+00 1.867432416816e-05 1.247712849550e-05 0.000000000000e+00 1.842324857562e-05 1.230936659942e-05 0.000000000000e+00 1.821210336108e-05 1.216830736772e-05 0.000000000000e+00 1.802051000171e-05 1.204030115964e-05 0.000000000000e+00 1.783434582880e-05 1.191591225619e-05 0.000000000000e+00 1.765347218706e-05 1.179505657313e-05 0.000000000000e+00 1.747774725262e-05 1.167764125784e-05 0.000000000000e+00 1.730702714651e-05 1.156357042722e-05 0.000000000000e+00 1.714116768728e-05 1.145274762568e-05 0.000000000000e+00 1.698002581468e-05 1.134507710059e-05 0.000000000000e+00 1.682346051400e-05 1.124046454898e-05 0.000000000000e+00 1.667133334376e-05 1.113881755860e-05 0.000000000000e+00 1.652350850150e-05 1.104004611435e-05 0.000000000000e+00 1.637985224402e-05 1.094406359985e-05 0.000000000000e+00 1.624023058958e-05 1.085079014112e-05 0.000000000000e+00 1.610450195796e-05 1.076016387588e-05 0.000000000000e+00 1.597249336602e-05 1.067217873954e-05 0.000000000000e+00 1.584392332192e-05 1.058700914414e-05 0.000000000000e+00 2.431788057272e-05 1.995561070513e-05 0.000000000000e+00 2.348592041886e-05 1.927384545506e-05 0.000000000000e+00 2.271055048737e-05 1.863720253134e-05 0.000000000000e+00 2.198880482447e-05 1.804476018859e-05 0.000000000000e+00 2.131878592921e-05 1.749488193498e-05 0.000000000000e+00 2.069876218488e-05 1.698606426886e-05 0.000000000000e+00 2.012710614349e-05 1.651694395452e-05 0.000000000000e+00 1.960229100518e-05 1.608626216718e-05 0.000000000000e+00 1.912287926273e-05 1.569283863542e-05 0.000000000000e+00 1.868751302726e-05 1.533555907725e-05 0.000000000000e+00 1.829490532678e-05 1.501336757372e-05 0.000000000000e+00 1.794382496756e-05 1.472525367784e-05 0.000000000000e+00 1.763304796956e-05 1.447021185801e-05 0.000000000000e+00 1.736146539446e-05 1.424733183324e-05 0.000000000000e+00 1.712803982118e-05 1.405576874010e-05 0.000000000000e+00 1.693173258488e-05 1.389469991995e-05 0.000000000000e+00 1.675360323069e-05 1.374853595395e-05 0.000000000000e+00 1.658052391029e-05 1.360650201527e-05 0.000000000000e+00 1.641236393424e-05 1.346850227316e-05 0.000000000000e+00 1.624899086427e-05 1.333443086335e-05 0.000000000000e+00 1.609027071899e-05 1.320417838685e-05 0.000000000000e+00 1.593606940058e-05 1.307763471634e-05 0.000000000000e+00 1.578625387861e-05 1.295469052220e-05 0.000000000000e+00 1.564069305632e-05 1.283523808361e-05 0.000000000000e+00 1.549925818623e-05 1.271917187024e-05 0.000000000000e+00 1.536182286161e-05 1.260638905737e-05 0.000000000000e+00 1.522826213596e-05 1.249679071544e-05 0.000000000000e+00 1.509844937264e-05 1.239028560632e-05 0.000000000000e+00 1.497224587078e-05 1.228680311967e-05 0.000000000000e+00 1.484946718042e-05 1.218633656140e-05 0.000000000000e+00 1.472977327671e-05 1.208908629351e-05 0.000000000000e+00 2.224495441676e-05 2.224295318819e-05 0.000000000000e+00 2.148368691376e-05 2.148301996816e-05 0.000000000000e+00 2.077448464314e-05 2.077339608790e-05 0.000000000000e+00 2.011429325927e-05 2.011304091459e-05 0.000000000000e+00 1.950139391152e-05 1.950012842831e-05 0.000000000000e+00 1.893422058190e-05 1.893298235114e-05 0.000000000000e+00 1.841129059284e-05 1.841008292637e-05 0.000000000000e+00 1.793120861317e-05 1.793002687637e-05 0.000000000000e+00 1.749265996257e-05 1.749149861530e-05 0.000000000000e+00 1.709440271771e-05 1.709325636235e-05 0.000000000000e+00 1.673525989114e-05 1.673412368594e-05 0.000000000000e+00 1.641410554117e-05 1.641297540492e-05 0.000000000000e+00 1.612982032752e-05 1.612869272426e-05 0.000000000000e+00 1.588138971065e-05 1.588026403516e-05 0.000000000000e+00 1.566786306030e-05 1.566675150833e-05 0.000000000000e+00 1.548828659222e-05 1.548724227381e-05 0.000000000000e+00 1.532533645719e-05 1.532433023482e-05 0.000000000000e+00 1.516700469236e-05 1.516602188230e-05 0.000000000000e+00 1.501317244333e-05 1.501220926265e-05 0.000000000000e+00 1.486371914297e-05 1.486277430932e-05 0.000000000000e+00 1.471852252955e-05 1.471759526051e-05 0.000000000000e+00 1.457746001360e-05 1.457654960813e-05 0.000000000000e+00 1.444040990623e-05 1.443951565896e-05 0.000000000000e+00 1.430725219806e-05 1.430637349896e-05 0.000000000000e+00 1.417786897312e-05 1.417700559551e-05 0.000000000000e+00 1.405214425564e-05 1.405129742641e-05 0.000000000000e+00 1.392996283950e-05 1.392913876939e-05 0.000000000000e+00 1.381120601079e-05 1.381042798412e-05 0.000000000000e+00 1.369573748028e-05 1.369508647952e-05 0.000000000000e+00 1.358335724573e-05 1.358310729339e-05 0.000000000000e+00 1.347365078732e-05 1.347471576810e-05 0.000000000000e+00 1.995782191780e-05 2.431611056772e-05 0.000000000000e+00 1.927452491847e-05 2.348531512580e-05 0.000000000000e+00 1.863833739503e-05 2.270954395547e-05 0.000000000000e+00 1.804606543179e-05 2.198763764021e-05 0.000000000000e+00 1.749618992025e-05 2.131759713757e-05 0.000000000000e+00 1.698732985023e-05 2.069758947528e-05 0.000000000000e+00 1.651816308333e-05 2.012595309698e-05 0.000000000000e+00 1.608743928839e-05 1.960115388484e-05 0.000000000000e+00 1.569397875081e-05 1.912175361847e-05 0.000000000000e+00 1.533666670527e-05 1.868639470881e-05 0.000000000000e+00 1.501444641129e-05 1.829379097874e-05 0.000000000000e+00 1.472630670264e-05 1.794271213912e-05 0.000000000000e+00 1.447124209025e-05 1.763193469399e-05 0.000000000000e+00 1.424834068345e-05 1.736035162025e-05 0.000000000000e+00 1.405674652998e-05 1.712693515407e-05 0.000000000000e+00 1.389556820183e-05 1.693063702656e-05 0.000000000000e+00 1.374937229802e-05 1.675252537911e-05 0.000000000000e+00 1.360732046765e-05 1.657945444674e-05 0.000000000000e+00 1.346930474836e-05 1.641130235357e-05 0.000000000000e+00 1.333521701901e-05 1.624793808852e-05 0.000000000000e+00 1.320494778631e-05 1.608922754268e-05 0.000000000000e+00 1.307838722367e-05 1.593503623273e-05 0.000000000000e+00 1.295542624323e-05 1.578523081326e-05 0.000000000000e+00 1.283595722574e-05 1.563967999642e-05 0.000000000000e+00 1.271987432139e-05 1.549825518583e-05 0.000000000000e+00 1.260707320727e-05 1.536083108186e-05 0.000000000000e+00 1.249744946774e-05 1.522728712777e-05 0.000000000000e+00 1.239089296986e-05 1.509751217087e-05 0.000000000000e+00 1.228726912228e-05 1.497142035853e-05 0.000000000000e+00 1.218635709759e-05 1.484900466469e-05 0.000000000000e+00 1.208764694197e-05 1.473051459595e-05 0.000000000000e+00 1.747847893880e-05 2.615520527916e-05 0.000000000000e+00 1.687965166824e-05 2.526151199644e-05 0.000000000000e+00 1.632261975899e-05 2.442704626869e-05 0.000000000000e+00 1.580397035573e-05 2.365052521566e-05 0.000000000000e+00 1.532240566815e-05 2.292979473985e-05 0.000000000000e+00 1.487674769187e-05 2.226288276185e-05 0.000000000000e+00 1.446585005146e-05 2.164800175954e-05 0.000000000000e+00 1.408862103738e-05 2.108350161132e-05 0.000000000000e+00 1.374402825972e-05 2.056783552272e-05 0.000000000000e+00 1.343109570241e-05 2.009954338687e-05 0.000000000000e+00 1.314889829202e-05 1.967724178331e-05 0.000000000000e+00 1.289655124347e-05 1.929960720079e-05 0.000000000000e+00 1.267317524578e-05 1.896532304860e-05 0.000000000000e+00 1.247797198595e-05 1.867319770656e-05 0.000000000000e+00 1.231018852043e-05 1.842212433113e-05 0.000000000000e+00 1.216902301715e-05 1.821096727514e-05 0.000000000000e+00 1.204097592007e-05 1.801939395032e-05 0.000000000000e+00 1.191656778654e-05 1.783323631270e-05 0.000000000000e+00 1.179569699326e-05 1.765236630026e-05 0.000000000000e+00 1.167826671218e-05 1.747664459864e-05 0.000000000000e+00 1.156418043097e-05 1.730592782244e-05 0.000000000000e+00 1.145334181940e-05 1.714007178181e-05 0.000000000000e+00 1.134565533558e-05 1.697893329480e-05 0.000000000000e+00 1.124102672508e-05 1.682237126781e-05 0.000000000000e+00 1.113936321269e-05 1.667024738722e-05 0.000000000000e+00 1.104057303522e-05 1.652242684824e-05 0.000000000000e+00 1.094456330090e-05 1.637877990204e-05 0.000000000000e+00 1.085123258177e-05 1.623918689287e-05 0.000000000000e+00 1.076044619087e-05 1.610355551847e-05 0.000000000000e+00 1.067195410703e-05 1.597187920699e-05 0.000000000000e+00 1.058512004282e-05 1.584443184915e-05 0.000000000000e+00 1.483066108697e-05 2.774267763520e-05 0.000000000000e+00 1.432198587931e-05 2.679462148448e-05 0.000000000000e+00 1.384952667114e-05 2.590946551229e-05 0.000000000000e+00 1.340952246533e-05 2.508578435157e-05 0.000000000000e+00 1.300093026177e-05 2.432128715389e-05 0.000000000000e+00 1.262278867076e-05 2.361388066361e-05 0.000000000000e+00 1.227413585565e-05 2.296166640241e-05 0.000000000000e+00 1.195405022231e-05 2.236289219294e-05 0.000000000000e+00 1.166165875125e-05 2.181591654127e-05 0.000000000000e+00 1.139613409514e-05 2.131919051719e-05 0.000000000000e+00 1.115669010950e-05 2.087124673519e-05 0.000000000000e+00 1.094257403385e-05 2.047068143283e-05 0.000000000000e+00 1.075303854232e-05 2.011609828689e-05 0.000000000000e+00 1.058740588360e-05 1.980623344585e-05 0.000000000000e+00 1.044503532104e-05 1.953991303289e-05 0.000000000000e+00 1.032523372924e-05 1.931593113267e-05 0.000000000000e+00 1.021657035439e-05 1.911272942828e-05 0.000000000000e+00 1.011100542001e-05 1.891526968539e-05 0.000000000000e+00 1.000844492643e-05 1.872341800902e-05 0.000000000000e+00 9.908804731660e-06 1.853702725861e-05 0.000000000000e+00 9.812002381806e-06 1.835594551846e-05 0.000000000000e+00 9.717955924255e-06 1.818001984992e-05 0.000000000000e+00 9.626584135279e-06 1.800909831877e-05 0.000000000000e+00 9.537806865507e-06 1.784303118546e-05 0.000000000000e+00 9.451545084520e-06 1.768167165546e-05 0.000000000000e+00 9.367720187605e-06 1.752487663101e-05 0.000000000000e+00 9.286251179907e-06 1.737250835161e-05 0.000000000000e+00 9.207044961641e-06 1.722443973390e-05 0.000000000000e+00 9.129963584335e-06 1.708057293615e-05 0.000000000000e+00 9.054714579037e-06 1.694090286888e-05 0.000000000000e+00 8.980486265964e-06 1.680573061940e-05 0.000000000000e+00 1.203980682064e-05 2.906363174325e-05 0.000000000000e+00 1.162605662017e-05 2.807025633476e-05 0.000000000000e+00 1.124281608619e-05 2.714291242735e-05 0.000000000000e+00 1.088569594250e-05 2.627996894702e-05 0.000000000000e+00 1.055401147847e-05 2.547902253625e-05 0.000000000000e+00 1.024705496485e-05 2.473788795810e-05 0.000000000000e+00 9.964038612675e-06 2.405457570024e-05 0.000000000000e+00 9.704199432043e-06 2.342724703192e-05 0.000000000000e+00 9.466827100778e-06 2.285418186446e-05 0.000000000000e+00 9.251257752207e-06 2.233376022730e-05 0.000000000000e+00 9.056862450402e-06 2.186444868212e-05 0.000000000000e+00 8.883036215279e-06 2.144477930932e-05 0.000000000000e+00 8.729174518402e-06 2.107328970424e-05 0.000000000000e+00 8.594724770517e-06 2.074865395406e-05 0.000000000000e+00 8.479157695293e-06 2.046963969807e-05 0.000000000000e+00 8.381886140058e-06 2.023498016887e-05 0.000000000000e+00 8.293667155502e-06 2.002209586650e-05 0.000000000000e+00 8.207973168673e-06 1.981522564975e-05 0.000000000000e+00 8.124719898829e-06 1.961422926806e-05 0.000000000000e+00 8.043838215268e-06 1.941895282056e-05 0.000000000000e+00 7.965261598028e-06 1.922923758555e-05 0.000000000000e+00 7.888923806815e-06 1.904492385224e-05 0.000000000000e+00 7.814758822986e-06 1.886585293401e-05 0.000000000000e+00 7.742701136952e-06 1.869186834147e-05 0.000000000000e+00 7.672685753979e-06 1.852281654274e-05 0.000000000000e+00 7.604647279910e-06 1.835854768993e-05 0.000000000000e+00 7.538516307079e-06 1.819891722683e-05 0.000000000000e+00 7.474206581552e-06 1.804379151319e-05 0.000000000000e+00 7.411570626502e-06 1.789306807128e-05 0.000000000000e+00 7.350248888854e-06 1.774674593123e-05 0.000000000000e+00 7.289165609431e-06 1.760516197282e-05 0.000000000000e+00 9.132361808081e-06 3.010588997079e-05 0.000000000000e+00 8.817326847038e-06 2.907637326962e-05 0.000000000000e+00 8.527449592562e-06 2.811567274407e-05 0.000000000000e+00 8.256724150738e-06 2.722170131728e-05 0.000000000000e+00 8.004986792000e-06 2.639193851063e-05 0.000000000000e+00 7.772041802304e-06 2.562417843756e-05 0.000000000000e+00 7.557383192298e-06 2.491638976126e-05 0.000000000000e+00 7.360391818529e-06 2.426665251173e-05 0.000000000000e+00 7.180458133050e-06 2.367314360611e-05 0.000000000000e+00 7.017025841247e-06 2.313414043918e-05 0.000000000000e+00 6.869594265744e-06 2.264802310599e-05 0.000000000000e+00 6.737706687997e-06 2.221325898773e-05 0.000000000000e+00 6.620924196032e-06 2.182834014211e-05 0.000000000000e+00 6.518851486854e-06 2.149191399179e-05 0.000000000000e+00 6.431103188710e-06 2.120273217902e-05 0.000000000000e+00 6.357224139643e-06 2.095950807465e-05 0.000000000000e+00 6.290302094826e-06 2.073892547626e-05 0.000000000000e+00 6.225355885701e-06 2.052458723148e-05 0.000000000000e+00 6.162289612863e-06 2.031634800586e-05 0.000000000000e+00 6.101035751218e-06 2.011404634970e-05 0.000000000000e+00 6.041535593598e-06 1.991751506527e-05 0.000000000000e+00 5.983734105644e-06 1.972658585361e-05 0.000000000000e+00 5.927578418603e-06 1.954109173425e-05 0.000000000000e+00 5.873017233609e-06 1.936086834793e-05 0.000000000000e+00 5.820000280481e-06 1.918575465021e-05 0.000000000000e+00 5.768476914490e-06 1.901559346442e-05 0.000000000000e+00 5.718391096908e-06 1.885023309105e-05 0.000000000000e+00 5.669662922858e-06 1.868953387405e-05 0.000000000000e+00 5.622123396739e-06 1.853339225922e-05 0.000000000000e+00 5.575293075850e-06 1.838182211383e-05 0.000000000000e+00 5.527654699158e-06 1.823521628664e-05 0.000000000000e+00 6.138369678760e-06 3.085676788773e-05 0.000000000000e+00 5.922996574161e-06 2.980108976231e-05 0.000000000000e+00 5.730026474176e-06 2.881747202925e-05 0.000000000000e+00 5.549196641540e-06 2.790245784636e-05 0.000000000000e+00 5.379718119325e-06 2.705264942396e-05 0.000000000000e+00 5.221977168081e-06 2.626561418123e-05 0.000000000000e+00 5.076262006781e-06 2.553946925704e-05 0.000000000000e+00 4.942610513227e-06 2.487256559567e-05 0.000000000000e+00 4.820863363846e-06 2.426332545679e-05 0.000000000000e+00 4.710721274172e-06 2.371018796466e-05 0.000000000000e+00 4.611805094130e-06 2.321159747051e-05 0.000000000000e+00 4.523700332871e-06 2.276599835060e-05 0.000000000000e+00 4.445986954668e-06 2.237179228247e-05 0.000000000000e+00 4.378279170596e-06 2.202749740330e-05 0.000000000000e+00 4.320202460876e-06 2.173171854380e-05 0.000000000000e+00 4.271322001282e-06 2.148299293233e-05 0.000000000000e+00 4.226931877737e-06 2.125716584980e-05 0.000000000000e+00 4.183704384406e-06 2.103770312440e-05 0.000000000000e+00 4.141612103710e-06 2.082445094959e-05 0.000000000000e+00 4.100646218571e-06 2.061724521031e-05 0.000000000000e+00 4.060795929410e-06 2.041591835004e-05 0.000000000000e+00 4.022045488449e-06 2.022030202010e-05 0.000000000000e+00 3.984375320548e-06 2.003022835420e-05 0.000000000000e+00 3.947763748270e-06 1.984553065258e-05 0.000000000000e+00 3.912188131708e-06 1.966604397776e-05 0.000000000000e+00 3.877623805058e-06 1.949160637742e-05 0.000000000000e+00 3.844035490111e-06 1.932206254251e-05 0.000000000000e+00 3.811343957925e-06 1.915727489310e-05 0.000000000000e+00 3.779314866934e-06 1.899715561598e-05 0.000000000000e+00 3.747208996847e-06 1.884175665193e-05 0.000000000000e+00 3.712712713674e-06 1.869151960072e-05 0.000000000000e+00 3.083972919044e-06 3.130657178112e-05 0.000000000000e+00 2.958445410946e-06 3.022534667716e-05 0.000000000000e+00 2.856295571020e-06 2.921940258274e-05 0.000000000000e+00 2.767426687830e-06 2.828865111231e-05 0.000000000000e+00 2.687852479220e-06 2.742872516934e-05 0.000000000000e+00 2.615188020731e-06 2.663532653381e-05 0.000000000000e+00 2.548012718097e-06 2.590485728205e-05 0.000000000000e+00 2.485599828649e-06 2.523438848788e-05 0.000000000000e+00 2.427641025085e-06 2.462153139008e-05 0.000000000000e+00 2.374074972870e-06 2.406430188781e-05 0.000000000000e+00 2.324974509549e-06 2.356100332886e-05 0.000000000000e+00 2.280451731220e-06 2.311013530150e-05 0.000000000000e+00 2.240586697688e-06 2.271028142196e-05 0.000000000000e+00 2.205432186825e-06 2.236021789847e-05 0.000000000000e+00 2.174951671473e-06 2.205883625086e-05 0.000000000000e+00 2.148931915859e-06 2.180490982170e-05 0.000000000000e+00 2.125510977596e-06 2.157509013458e-05 0.000000000000e+00 2.103086699428e-06 2.135178024296e-05 0.000000000000e+00 2.081494007161e-06 2.113483608928e-05 0.000000000000e+00 2.060645971903e-06 2.092408993282e-05 0.000000000000e+00 2.040488900406e-06 2.071936527073e-05 0.000000000000e+00 2.020985600053e-06 2.052048366277e-05 0.000000000000e+00 2.002107722115e-06 2.032726870672e-05 0.000000000000e+00 1.983830352356e-06 2.013954907433e-05 0.000000000000e+00 1.966125100244e-06 1.995716155782e-05 0.000000000000e+00 1.948946544995e-06 1.977995491942e-05 0.000000000000e+00 1.932200846913e-06 1.960779574446e-05 0.000000000000e+00 1.915668427153e-06 1.944057794907e-05 0.000000000000e+00 1.898806590415e-06 1.927823798061e-05 0.000000000000e+00 1.880231654295e-06 1.912077723547e-05 0.000000000000e+00 1.856328696418e-06 1.896828728984e-05 0.000000000000e+00 0.000000000000e+00 3.139681901925e-05 0.000000000000e+00 0.000000000000e+00 3.045795300160e-05 0.000000000000e+00 0.000000000000e+00 2.950114377927e-05 0.000000000000e+00 0.000000000000e+00 2.857349880108e-05 0.000000000000e+00 0.000000000000e+00 2.769343284399e-05 0.000000000000e+00 0.000000000000e+00 2.686970070327e-05 0.000000000000e+00 0.000000000000e+00 2.610644914747e-05 0.000000000000e+00 0.000000000000e+00 2.540522719300e-05 0.000000000000e+00 0.000000000000e+00 2.476598641289e-05 0.000000000000e+00 0.000000000000e+00 2.418771299404e-05 0.000000000000e+00 0.000000000000e+00 2.366884675998e-05 0.000000000000e+00 0.000000000000e+00 2.320753296838e-05 0.000000000000e+00 0.000000000000e+00 2.280168651807e-05 0.000000000000e+00 0.000000000000e+00 2.244923906010e-05 0.000000000000e+00 0.000000000000e+00 2.214806871549e-05 0.000000000000e+00 0.000000000000e+00 2.189569873899e-05 0.000000000000e+00 0.000000000000e+00 2.166820373559e-05 0.000000000000e+00 0.000000000000e+00 2.144671978608e-05 0.000000000000e+00 0.000000000000e+00 2.123128407317e-05 0.000000000000e+00 0.000000000000e+00 2.102184360923e-05 0.000000000000e+00 0.000000000000e+00 2.081830986907e-05 0.000000000000e+00 0.000000000000e+00 2.062057979774e-05 0.000000000000e+00 0.000000000000e+00 2.042854418927e-05 0.000000000000e+00 0.000000000000e+00 2.024208969887e-05 0.000000000000e+00 0.000000000000e+00 2.006109544284e-05 0.000000000000e+00 0.000000000000e+00 1.988542095772e-05 0.000000000000e+00 0.000000000000e+00 1.971487597276e-05 0.000000000000e+00 0.000000000000e+00 1.954914820125e-05 0.000000000000e+00 0.000000000000e+00 1.938762843520e-05 0.000000000000e+00 0.000000000000e+00 1.922897476816e-05 0.000000000000e+00 0.000000000000e+00 1.906999331640e-05 0.000000000000e+00 
        </DataArray>
        <DataArray type="Float64" Name="NORMSTRESS_1" NumberOfComponents="3" format="ascii">
          9.999975394505e-01 -2.218353675016e-03 0.000000000000e+00 9.999982306944e-01 -1.881118844747e-03 0.000000000000e+00 9.999988235551e-01 -1.533912755091e-03 0.000000000000e+00 9.999992518742e-01 -1.223213411899e-03 0.000000000000e+00 9.999995569129e-01 -9.413681409400e-04 0.000000000000e+00 9.999997655200e-01 -6.848064340775e-04 0.000000000000e+00 9.999998990230e-01 -4.493929277186e-04 0.000000000000e+00 9.999999830291e-01 -1.842331343637e-04 0.000000000000e+00 9.999999810120e-01 1.948745355680e-04 0.000000000000e+00 9.999994571110e-01 1.042006563828e-03 0.000000000000e+00 9.998628161550e-01 1.656348002675e-02 0.000000000000e+00 2.875985583058e-03 9.999958643449e-01 0.000000000000e+00 1.721430265280e-03 9.999985183378e-01 0.000000000000e+00 1.454024383937e-03 9.999989429060e-01 0.000000000000e+00 1.429594658563e-03 9.999989781290e-01 0.000000000000e+00 1.522526975441e-03 9.999988409551e-01 0.000000000000e+00 1.094929741713e-03 9.999994005643e-01 0.000000000000e+00 7.940697874687e-04 9.999996847265e-01 0.000000000000e+00 5.752655836308e-04 9.999998345347e-01 0.000000000000e+00 4.174616029212e-04 9.999999128629e-01 0.000000000000e+00 3.056554937075e-04 9.999999532874e-01 0.000000000000e+00 2.293946971474e-04 9.999999736890e-01 0.000000000000e+00 1.816286478045e-04 9.999999835055e-01 0.000000000000e+00 1.580253990265e-04 9.999999875140e-01 0.000000000000e+00 1.564630743221e-04 9.999999877597e-01 0.000000000000e+00 1.767201601879e-04 9.999999843850e-01 0.000000000000e+00 2.203424400900e-04 9.999999757246e-01 0.000000000000e+00 2.903392175287e-04 9.999999578516e-01 0.000000000000e+00 3.901105504773e-04 9.999999239069e-01 0.000000000000e+00 5.196287796786e-04 9.999998649930e-01 0.000000000000e+00 6.564559480514e-04 9.999997845328e-01 0.000000000000e+00 9.951933203067e-01 9.792984844722e-02 0.000000000000e+00 9.951878365394e-01 9.798556018171e-02 0.000000000000e+00 9.951856414969e-01 9.800785151449e-02 0.000000000000e+00 9.951849801093e-01 9.801456710565e-02 0.000000000000e+00 9.951847890560e-01 9.801650693432e-02 0.000000000000e+00 9.951847333233e-01 9.801707279968e-02 0.000000000000e+00 9.951847189434e-01 9.801721880082e-02 0.000000000000e+00 9.951847183036e-01 9.801722529745e-02 0.000000000000e+00 9.951847206063e-01 9.801720191749e-02 0.000000000000e+00 9.951847441442e-01 9.801696293289e-02 0.000000000000e+00 9.951850970218e-01 9.801338003373e-02 0.000000000000e+00 -9.801806578128e-02 9.951846355227e-01 0.000000000000e+00 -9.801794364328e-02 9.951846475524e-01 0.000000000000e+00 -9.801767882672e-02 9.951846736347e-01 0.000000000000e+00 -9.801705300830e-02 9.951847352726e-01 0.000000000000e+00 -9.801498620181e-02 9.951849388329e-01 0.000000000000e+00 -9.801625097555e-02 9.951848142655e-01 0.000000000000e+00 -9.801643860347e-02 9.951847957859e-01 0.000000000000e+00 -9.801647358313e-02 9.951847923408e-01 0.000000000000e+00 -9.801647811037e-02 9.951847918949e-01 0.000000000000e+00 -9.801647194692e-02 9.951847925019e-01 0.000000000000e+00 -9.801649951065e-02 9.951847897871e-01 0.000000000000e+00 -9.801650980512e-02 9.951847887732e-01 0.000000000000e+00 -9.801652383380e-02 9.951847873915e-01 0.000000000000e+00 -9.801653281928e-02 9.951847865065e-01 0.000000000000e+00 -9.801643582811e-02 9.951847960593e-01 0.000000000000e+00 -9.801598864817e-02 9.951848401022e-01 0.000000000000e+00 -9.801434720439e-02 9.951850017671e-01 0.000000000000e+00 -9.800841332685e-02 9.951855861683e-01 0.000000000000e+00 -9.798793776076e-02 9.951876024416e-01 0.000000000000e+00 -9.791133811739e-02 9.951951416019e-01 0.000000000000e+00 9.808198226415e-01 1.949165860402e-01 0.000000000000e+00 9.807977789998e-01 1.950274768052e-01 0.000000000000e+00 9.807889557861e-01 1.950718437088e-01 0.000000000000e+00 9.807862962726e-01 1.950852148263e-01 0.000000000000e+00 9.807855249883e-01 1.950890923998e-01 0.000000000000e+00 9.807852992922e-01 1.950902270550e-01 0.000000000000e+00 9.807852389563e-01 1.950905303836e-01 0.000000000000e+00 9.807852275999e-01 1.950905874764e-01 0.000000000000e+00 9.807852315783e-01 1.950905674756e-01 0.000000000000e+00 9.807852975055e-01 1.950902360374e-01 0.000000000000e+00 9.807861980433e-01 1.950857086711e-01 0.000000000000e+00 -1.950917765473e-01 9.807849910779e-01 0.000000000000e+00 -1.950917536939e-01 9.807849956237e-01 0.000000000000e+00 -1.950912766189e-01 9.807850905205e-01 0.000000000000e+00 -1.950900677579e-01 9.807853309783e-01 0.000000000000e+00 -1.950859437118e-01 9.807861512919e-01 0.000000000000e+00 -1.950884864171e-01 9.807856455248e-01 0.000000000000e+00 -1.950888758878e-01 9.807855680549e-01 0.000000000000e+00 -1.950889393851e-01 9.807855554246e-01 0.000000000000e+00 -1.950889457974e-01 9.807855541492e-01 0.000000000000e+00 -1.950889479558e-01 9.807855537198e-01 0.000000000000e+00 -1.950889667042e-01 9.807855499906e-01 0.000000000000e+00 -1.950890136042e-01 9.807855406616e-01 0.000000000000e+00 -1.950890578181e-01 9.807855318670e-01 0.000000000000e+00 -1.950890664043e-01 9.807855301591e-01 0.000000000000e+00 -1.950889013629e-01 9.807855629877e-01 0.000000000000e+00 -1.950880417353e-01 9.807857339765e-01 0.000000000000e+00 -1.950847199512e-01 9.807863947066e-01 0.000000000000e+00 -1.950729221350e-01 9.807887412943e-01 0.000000000000e+00 -1.950321957963e-01 9.807968406367e-01 0.000000000000e+00 -1.948797435837e-01 9.808271435583e-01 0.000000000000e+00 9.570187091649e-01 2.900261890042e-01 0.000000000000e+00 9.569686936914e-01 2.901911771479e-01 0.000000000000e+00 9.569486683410e-01 2.902572069051e-01 0.000000000000e+00 9.569426276877e-01 2.902771215822e-01 0.000000000000e+00 9.569408732209e-01 2.902829053859e-01 0.000000000000e+00 9.569403477304e-01 2.902846377017e-01 0.000000000000e+00 9.569401987496e-01 2.902851288252e-01 0.000000000000e+00 9.569401578009e-01 2.902852638148e-01 0.000000000000e+00 9.569401187276e-01 2.902853926219e-01 0.000000000000e+00 9.569401606907e-01 2.902852542885e-01 0.000000000000e+00 9.569403209774e-01 2.902847258945e-01 0.000000000000e+00 -2.902859095727e-01 9.569399619117e-01 0.000000000000e+00 -2.902863762198e-01 9.569398203551e-01 0.000000000000e+00 -2.902858118155e-01 9.569399915661e-01 0.000000000000e+00 -2.902840829257e-01 9.569405160197e-01 0.000000000000e+00 -2.902779968783e-01 9.569423621767e-01 0.000000000000e+00 -2.902817770507e-01 9.569412154946e-01 0.000000000000e+00 -2.902823579910e-01 9.569410392700e-01 0.000000000000e+00 -2.902824694119e-01 9.569410054711e-01 0.000000000000e+00 -2.902824839859e-01 9.569410010502e-01 0.000000000000e+00 -2.902825045615e-01 9.569409948087e-01 0.000000000000e+00 -2.902825487531e-01 9.569409814035e-01 0.000000000000e+00 -2.902826239843e-01 9.569409585825e-01 0.000000000000e+00 -2.902827030491e-01 9.569409345986e-01 0.000000000000e+00 -2.902827291058e-01 9.569409266945e-01 0.000000000000e+00 -2.902824793254e-01 9.569410024640e-01 0.000000000000e+00 -2.902812104577e-01 9.569413873667e-01 0.000000000000e+00 -2.902762910230e-01 9.569428796276e-01 0.000000000000e+00 -2.902587659010e-01 9.569481954723e-01 0.000000000000e+00 -2.901981898391e-01 9.569665671350e-01 0.000000000000e+00 -2.899713679139e-01 9.570353210776e-01 0.000000000000e+00 9.240205900274e-01 3.823427117199e-01 0.000000000000e+00 9.239305669698e-01 3.825602010389e-01 0.000000000000e+00 9.238945104707e-01 3.826472703706e-01 0.000000000000e+00 9.238836237633e-01 3.826735550597e-01 0.000000000000e+00 9.238804513528e-01 3.826812140778e-01 0.000000000000e+00 9.238794797847e-01 3.826835596582e-01 0.000000000000e+00 9.238791724642e-01 3.826843015945e-01 0.000000000000e+00 9.238790565890e-01 3.826845813412e-01 0.000000000000e+00 9.238788905097e-01 3.826849822904e-01 0.000000000000e+00 9.238786999297e-01 3.826854423887e-01 0.000000000000e+00 9.238741840972e-01 3.826963443238e-01 0.000000000000e+00 -3.826833812254e-01 9.238795536940e-01 0.000000000000e+00 -3.826848555953e-01 9.238789429887e-01 0.000000000000e+00 -3.826844113704e-01 9.238791269934e-01 0.000000000000e+00 -3.826822564527e-01 9.238800195893e-01 0.000000000000e+00 -3.826743221983e-01 9.238833060133e-01 0.000000000000e+00 -3.826793330734e-01 9.238812304829e-01 0.000000000000e+00 -3.826801310142e-01 9.238808999687e-01 0.000000000000e+00 -3.826802884268e-01 9.238808347669e-01 0.000000000000e+00 -3.826803421388e-01 9.238808125189e-01 0.000000000000e+00 -3.826803954540e-01 9.238807904352e-01 0.000000000000e+00 -3.826804780376e-01 9.238807562283e-01 0.000000000000e+00 -3.826805915650e-01 9.238807092041e-01 0.000000000000e+00 -3.826807200398e-01 9.238806559886e-01 0.000000000000e+00 -3.826807635434e-01 9.238806379689e-01 0.000000000000e+00 -3.826804572441e-01 9.238807648411e-01 0.000000000000e+00 -3.826788011692e-01 9.238814508018e-01 0.000000000000e+00 -3.826723311268e-01 9.238841307166e-01 0.000000000000e+00 -3.826492408025e-01 9.238936943790e-01 0.000000000000e+00 -3.825694333553e-01 9.239267442077e-01 0.000000000000e+00 -3.822704410336e-01 9.240504909971e-01 0.000000000000e+00 8.821454322958e-01 4.709771080209e-01 0.000000000000e+00 8.820023478867e-01 4.712450088037e-01 0.000000000000e+00 8.819450264615e-01 4.713522783437e-01 0.000000000000e+00 8.819276978301e-01 4.713847004306e-01 0.000000000000e+00 8.819226068894e-01 4.713942250997e-01 0.000000000000e+00 8.819210135131e-01 4.713972061054e-01 0.000000000000e+00 8.819204423507e-01 4.713982746723e-01 0.000000000000e+00 8.819201158483e-01 4.713988855122e-01 0.000000000000e+00 8.819196412177e-01 4.713997734774e-01 0.000000000000e+00 8.819187633405e-01 4.714014158527e-01 0.000000000000e+00 8.819017920634e-01 4.714331650991e-01 0.000000000000e+00 -4.713943230416e-01 8.819225545388e-01 0.000000000000e+00 -4.713974399857e-01 8.819208885013e-01 0.000000000000e+00 -4.713972517182e-01 8.819209891326e-01 0.000000000000e+00 -4.713948424031e-01 8.819222769359e-01 0.000000000000e+00 -4.713852178863e-01 8.819274212532e-01 0.000000000000e+00 -4.713914347773e-01 8.819240983320e-01 0.000000000000e+00 -4.713924416498e-01 8.819235601544e-01 0.000000000000e+00 -4.713926642936e-01 8.819234411502e-01 0.000000000000e+00 -4.713927502707e-01 8.819233951949e-01 0.000000000000e+00 -4.713928281300e-01 8.819233535787e-01 0.000000000000e+00 -4.713929327225e-01 8.819232976735e-01 0.000000000000e+00 -4.713930951188e-01 8.819232108717e-01 0.000000000000e+00 -4.713932627343e-01 8.819231212803e-01 0.000000000000e+00 -4.713933222640e-01 8.819230894613e-01 0.000000000000e+00 -4.713929621072e-01 8.819232819672e-01 0.000000000000e+00 -4.713909398535e-01 8.819243628702e-01 0.000000000000e+00 -4.713829817879e-01 8.819286164315e-01 0.000000000000e+00 -4.713545855841e-01 8.819437933615e-01 0.000000000000e+00 -4.712563494778e-01 8.819962885845e-01 0.000000000000e+00 -4.708880804508e-01 8.821929583087e-01 0.000000000000e+00 8.317997613270e-01 5.550758119900e-01 0.000000000000e+00 8.315890192259e-01 5.553914863435e-01 0.000000000000e+00 8.315045458847e-01 5.555179476606e-01 0.000000000000e+00 8.314789654648e-01 5.555562347680e-01 0.000000000000e+00 8.314713967301e-01 5.555675624257e-01 0.000000000000e+00 8.314689840070e-01 5.555711733292e-01 0.000000000000e+00 8.314680953120e-01 5.555725033497e-01 0.000000000000e+00 8.314676083451e-01 5.555732321422e-01 0.000000000000e+00 8.314669426859e-01 5.555742283624e-01 0.000000000000e+00 8.314657546192e-01 5.555760064074e-01 0.000000000000e+00 8.314403415738e-01 5.556140372629e-01 0.000000000000e+00 -5.555669336290e-01 8.314718168754e-01 0.000000000000e+00 -5.555705236646e-01 8.314694180997e-01 0.000000000000e+00 -5.555703422812e-01 8.314695392963e-01 0.000000000000e+00 -5.555678879016e-01 8.314711792555e-01 0.000000000000e+00 -5.555565346876e-01 8.314787650721e-01 0.000000000000e+00 -5.555637083382e-01 8.314739719182e-01 0.000000000000e+00 -5.555647684783e-01 8.314732635663e-01 0.000000000000e+00 -5.555649648022e-01 8.314731323887e-01 0.000000000000e+00 -5.555650027388e-01 8.314731070407e-01 0.000000000000e+00 -5.555650731935e-01 8.314730599649e-01 0.000000000000e+00 -5.555652328042e-01 8.314729533179e-01 0.000000000000e+00 -5.555654255562e-01 8.314728245268e-01 0.000000000000e+00 -5.555656461633e-01 8.314726771237e-01 0.000000000000e+00 -5.555657755590e-01 8.314725906652e-01 0.000000000000e+00 -5.555653760506e-01 8.314728576049e-01 0.000000000000e+00 -5.555630277415e-01 8.314744266703e-01 0.000000000000e+00 -5.555537258015e-01 8.314806418361e-01 0.000000000000e+00 -5.555203456446e-01 8.315029438161e-01 0.000000000000e+00 -5.554047383583e-01 8.315801684800e-01 0.000000000000e+00 -5.549708909687e-01 8.318697675582e-01 0.000000000000e+00 7.734732915844e-01 6.338288942653e-01 0.000000000000e+00 7.731780058331e-01 6.341890658912e-01 0.000000000000e+00 7.730597075152e-01 6.343332630539e-01 0.000000000000e+00 7.730239829894e-01 6.343767979074e-01 0.000000000000e+00 7.730134745518e-01 6.343896028163e-01 0.000000000000e+00 7.730101454519e-01 6.343936593539e-01 0.000000000000e+00 7.730088575434e-01 6.343952286702e-01 0.000000000000e+00 7.730078742927e-01 6.343964267566e-01 0.000000000000e+00 7.730060972773e-01 6.343985920320e-01 0.000000000000e+00 7.730017757754e-01 6.344038576870e-01 0.000000000000e+00 7.729168559528e-01 6.345073157845e-01 0.000000000000e+00 -6.343796148647e-01 7.730216712642e-01 0.000000000000e+00 -6.343894047803e-01 7.730136370741e-01 0.000000000000e+00 -6.343919433444e-01 7.730115537427e-01 0.000000000000e+00 -6.343908675712e-01 7.730124366026e-01 0.000000000000e+00 -6.343764881358e-01 7.730242372012e-01 0.000000000000e+00 -6.343854146804e-01 7.730169116137e-01 0.000000000000e+00 -6.343869089792e-01 7.730156852974e-01 0.000000000000e+00 -6.343871040613e-01 7.730155252003e-01 0.000000000000e+00 -6.343869934782e-01 7.730156159520e-01 0.000000000000e+00 -6.343869308231e-01 7.730156673709e-01 0.000000000000e+00 -6.343869727906e-01 7.730156329296e-01 0.000000000000e+00 -6.343871086358e-01 7.730155214462e-01 0.000000000000e+00 -6.343873133833e-01 7.730153534169e-01 0.000000000000e+00 -6.343874429049e-01 7.730152471230e-01 0.000000000000e+00 -6.343870075511e-01 7.730156044029e-01 0.000000000000e+00 -6.343843926908e-01 7.730177503203e-01 0.000000000000e+00 -6.343738679790e-01 7.730263874056e-01 0.000000000000e+00 -6.343359438593e-01 7.730575077755e-01 0.000000000000e+00 -6.342042537545e-01 7.731655479389e-01 0.000000000000e+00 -6.337091520529e-01 7.735713998102e-01 0.000000000000e+00 7.077349245570e-01 7.064780793219e-01 0.000000000000e+00 7.073341061399e-01 7.068793831279e-01 0.000000000000e+00 7.071733743215e-01 7.070401817795e-01 0.000000000000e+00 7.071246763241e-01 7.070888855961e-01 0.000000000000e+00 7.071101754310e-01 7.071033869258e-01 0.000000000000e+00 7.071053864333e-01 7.071081759370e-01 0.000000000000e+00 7.071034082784e-01 7.071101540786e-01 0.000000000000e+00 7.071020556991e-01 7.071115066424e-01 0.000000000000e+00 7.071000112879e-01 7.071135510204e-01 0.000000000000e+00 7.070960626676e-01 7.071174995430e-01 0.000000000000e+00 7.070237372367e-01 7.071898153847e-01 0.000000000000e+00 -7.071009920905e-01 7.071125702352e-01 0.000000000000e+00 7.071076195171e-01 -7.071059428550e-01 0.000000000000e+00 7.071074675097e-01 -7.071060948628e-01 0.000000000000e+00 -7.071015354636e-01 7.071120268706e-01 0.000000000000e+00 -7.070843114046e-01 7.071292502545e-01 0.000000000000e+00 -7.070928004532e-01 7.071207616434e-01 0.000000000000e+00 -7.070957940624e-01 7.071177681400e-01 0.000000000000e+00 -7.070975944492e-01 7.071159678045e-01 0.000000000000e+00 -7.070989396025e-01 7.071146226836e-01 0.000000000000e+00 -7.071000360433e-01 7.071135262654e-01 0.000000000000e+00 -7.071009773828e-01 7.071125849426e-01 0.000000000000e+00 -7.071017742262e-01 7.071117881114e-01 0.000000000000e+00 -7.071024406585e-01 7.071111216880e-01 0.000000000000e+00 -7.071028120259e-01 7.071107503249e-01 0.000000000000e+00 -7.071023813574e-01 7.071111809883e-01 0.000000000000e+00 -7.070993318744e-01 7.071142304202e-01 0.000000000000e+00 -7.070873539369e-01 7.071262079025e-01 0.000000000000e+00 -7.070446544217e-01 7.071689024934e-01 0.000000000000e+00 -7.068973384097e-01 7.073161619455e-01 0.000000000000e+00 -7.063445266991e-01 7.078682148551e-01 0.000000000000e+00 6.352291332458e-01 7.723237328192e-01 0.000000000000e+00 6.346958531739e-01 7.727620422639e-01 0.000000000000e+00 6.344820670286e-01 7.729375826153e-01 0.000000000000e+00 6.344174112633e-01 7.729906521337e-01 0.000000000000e+00 6.343982962038e-01 7.730063400605e-01 0.000000000000e+00 6.343922532882e-01 7.730112993792e-01 0.000000000000e+00 6.343901249755e-01 7.730130460307e-01 0.000000000000e+00 6.343890907586e-01 7.730138947823e-01 0.000000000000e+00 6.343878024332e-01 7.730149520701e-01 0.000000000000e+00 6.343859690005e-01 7.730164567040e-01 0.000000000000e+00 6.343433231087e-01 7.730514526391e-01 0.000000000000e+00 7.730078839007e-01 -6.343964150492e-01 0.000000000000e+00 7.730109008527e-01 -6.343927388952e-01 0.000000000000e+00 7.730088052966e-01 -6.343952923327e-01 0.000000000000e+00 7.729979344900e-01 -6.344085381473e-01 0.000000000000e+00 7.729972672027e-01 -6.344093512056e-01 0.000000000000e+00 7.730012755782e-01 -6.344044671615e-01 0.000000000000e+00 7.730013707427e-01 -6.344043512067e-01 0.000000000000e+00 7.730016122316e-01 -6.344040569600e-01 0.000000000000e+00 7.730021349657e-01 -6.344034200243e-01 0.000000000000e+00 7.730028095221e-01 -6.344025980960e-01 0.000000000000e+00 7.730035182249e-01 -6.344017345593e-01 0.000000000000e+00 7.730042407950e-01 -6.344008541238e-01 0.000000000000e+00 7.730048549263e-01 -6.344001058168e-01 0.000000000000e+00 7.730051923100e-01 -6.343996947208e-01 0.000000000000e+00 7.730046955923e-01 -6.344002999623e-01 0.000000000000e+00 7.730013699088e-01 -6.344043522227e-01 0.000000000000e+00 7.729883083406e-01 -6.344202669908e-01 0.000000000000e+00 7.729419077002e-01 -6.344767980949e-01 0.000000000000e+00 7.727814941155e-01 -6.346721691965e-01 0.000000000000e+00 7.721777858254e-01 -6.354065368547e-01 0.000000000000e+00 5.566727782614e-01 8.307318568243e-01 0.000000000000e+00 5.559701242889e-01 8.312022743582e-01 0.000000000000e+00 5.556886868772e-01 8.313904517594e-01 0.000000000000e+00 5.556036373370e-01 8.314472912806e-01 0.000000000000e+00 5.555782705085e-01 8.314642417680e-01 0.000000000000e+00 5.555702646507e-01 8.314695911673e-01 0.000000000000e+00 5.555674330347e-01 8.314714831858e-01 0.000000000000e+00 5.555655941755e-01 8.314727118604e-01 0.000000000000e+00 5.555625524531e-01 8.314747442417e-01 0.000000000000e+00 5.555566573476e-01 8.314786831163e-01 0.000000000000e+00 5.554490006471e-01 8.315506044013e-01 0.000000000000e+00 8.314635892531e-01 -5.555792470443e-01 0.000000000000e+00 8.314709996518e-01 -5.555681566991e-01 0.000000000000e+00 8.314714037548e-01 -5.555675519125e-01 0.000000000000e+00 8.314664356566e-01 -5.555749871768e-01 0.000000000000e+00 8.314506037165e-01 -5.555986803255e-01 0.000000000000e+00 8.314604491708e-01 -5.555839463706e-01 0.000000000000e+00 8.314627866729e-01 -5.555804481605e-01 0.000000000000e+00 8.314637158021e-01 -5.555790576547e-01 0.000000000000e+00 8.314642175945e-01 -5.555783066859e-01 0.000000000000e+00 8.314645875529e-01 -5.555777530152e-01 0.000000000000e+00 8.314649229346e-01 -5.555772510906e-01 0.000000000000e+00 8.314652044358e-01 -5.555768298017e-01 0.000000000000e+00 8.314654048205e-01 -5.555765299098e-01 0.000000000000e+00 8.314653554273e-01 -5.555766038307e-01 0.000000000000e+00 8.314644364654e-01 -5.555779791292e-01 0.000000000000e+00 8.314605152516e-01 -5.555838474772e-01 0.000000000000e+00 8.314462441783e-01 -5.556052042969e-01 0.000000000000e+00 8.313962881912e-01 -5.556799546339e-01 0.000000000000e+00 8.312241917896e-01 -5.559373552692e-01 0.000000000000e+00 8.305749976356e-01 -5.569067904978e-01 0.000000000000e+00 4.728549040309e-01 8.811403064972e-01 0.000000000000e+00 4.719268401398e-01 8.816377133243e-01 0.000000000000e+00 4.715560810388e-01 8.818360745827e-01 0.000000000000e+00 4.714449753115e-01 8.818954786445e-01 0.000000000000e+00 4.714105704144e-01 8.819138700018e-01 0.000000000000e+00 4.713987910671e-01 8.819201663305e-01 0.000000000000e+00 4.713951695306e-01 8.819221020834e-01 0.000000000000e+00 4.713946753141e-01 8.819223662463e-01 0.000000000000e+00 4.713943318913e-01 8.819225498085e-01 0.000000000000e+00 4.713937345409e-01 8.819228690966e-01 0.000000000000e+00 4.713519804634e-01 8.819451856625e-01 0.000000000000e+00 8.819186701665e-01 -4.714015901668e-01 0.000000000000e+00 8.819224031134e-01 -4.713946063403e-01 0.000000000000e+00 8.819221198463e-01 -4.713951362985e-01 0.000000000000e+00 8.819183090731e-01 -4.714022657154e-01 0.000000000000e+00 8.819007504031e-01 -4.714351137097e-01 0.000000000000e+00 8.819131822861e-01 -4.714118569893e-01 0.000000000000e+00 8.819164285815e-01 -4.714057837979e-01 0.000000000000e+00 8.819178028334e-01 -4.714032128077e-01 0.000000000000e+00 8.819185405607e-01 -4.714018326388e-01 0.000000000000e+00 8.819190157905e-01 -4.714009435578e-01 0.000000000000e+00 8.819193493408e-01 -4.714003195356e-01 0.000000000000e+00 8.819195554187e-01 -4.713999339945e-01 0.000000000000e+00 8.819195914209e-01 -4.713998666397e-01 0.000000000000e+00 8.819192748064e-01 -4.714004589782e-01 0.000000000000e+00 8.819179342423e-01 -4.714029669633e-01 0.000000000000e+00 8.819133380727e-01 -4.714115655449e-01 0.000000000000e+00 8.818977696620e-01 -4.714406896580e-01 0.000000000000e+00 8.818446734966e-01 -4.715400002393e-01 0.000000000000e+00 8.816628719054e-01 -4.718798367206e-01 0.000000000000e+00 8.809743654387e-01 -4.731639963479e-01 0.000000000000e+00 3.846443443576e-01 9.230648559845e-01 0.000000000000e+00 3.833953497291e-01 9.235843252276e-01 0.000000000000e+00 3.828934214370e-01 9.237925242284e-01 0.000000000000e+00 3.827510786382e-01 9.238515096060e-01 0.000000000000e+00 3.827078302503e-01 9.238694261989e-01 0.000000000000e+00 3.826879695867e-01 9.238776531195e-01 0.000000000000e+00 3.826771146988e-01 9.238821493490e-01 0.000000000000e+00 3.826753006557e-01 9.238829007337e-01 0.000000000000e+00 3.826852775488e-01 9.238787682090e-01 0.000000000000e+00 3.827238474521e-01 9.238627909985e-01 0.000000000000e+00 3.833478772750e-01 9.236040304095e-01 0.000000000000e+00 9.239204152804e-01 -3.825847177138e-01 0.000000000000e+00 9.238983582951e-01 -3.826379797401e-01 0.000000000000e+00 9.238870184033e-01 -3.826653593231e-01 0.000000000000e+00 9.238764571189e-01 -3.826908569348e-01 0.000000000000e+00 9.238536022827e-01 -3.827460274768e-01 0.000000000000e+00 9.238653791145e-01 -3.827175999006e-01 0.000000000000e+00 9.238699486185e-01 -3.827065691096e-01 0.000000000000e+00 9.238737680686e-01 -3.826973486644e-01 0.000000000000e+00 9.238774345926e-01 -3.826884971496e-01 0.000000000000e+00 9.238808249512e-01 -3.826803121242e-01 0.000000000000e+00 9.238837272670e-01 -3.826733051719e-01 0.000000000000e+00 9.238859485892e-01 -3.826679422154e-01 0.000000000000e+00 9.238873289594e-01 -3.826646095320e-01 0.000000000000e+00 9.238875835387e-01 -3.826639948873e-01 0.000000000000e+00 9.238859695423e-01 -3.826678916279e-01 0.000000000000e+00 9.238801942326e-01 -3.826818348246e-01 0.000000000000e+00 9.238624734613e-01 -3.827246139588e-01 0.000000000000e+00 9.238057171518e-01 -3.828615898175e-01 0.000000000000e+00 9.236151827575e-01 -3.833210067030e-01 0.000000000000e+00 9.228915820000e-01 -3.850599016693e-01 0.000000000000e+00 2.930257568354e-01 9.561045475423e-01 0.000000000000e+00 2.913071763619e-01 9.566295672830e-01 0.000000000000e+00 2.905688149196e-01 9.568540974445e-01 0.000000000000e+00 2.903744241809e-01 9.569131067039e-01 0.000000000000e+00 2.903483885621e-01 9.569210068022e-01 0.000000000000e+00 2.903416156270e-01 9.569230618159e-01 0.000000000000e+00 2.903009029849e-01 9.569354135605e-01 0.000000000000e+00 2.902034726500e-01 9.569649651173e-01 0.000000000000e+00 2.900164914085e-01 9.570216479846e-01 0.000000000000e+00 2.895847976931e-01 9.571523624507e-01 0.000000000000e+00 2.826979483441e-01 9.592089814019e-01 0.000000000000e+00 9.566799761142e-01 -2.911415863494e-01 0.000000000000e+00 9.568539284718e-01 -2.905693713523e-01 0.000000000000e+00 9.569141367242e-01 -2.903710297833e-01 0.000000000000e+00 9.569410045361e-01 -2.902824724942e-01 0.000000000000e+00 9.569417480180e-01 -2.902800215312e-01 0.000000000000e+00 9.569706950444e-01 -2.901845771680e-01 0.000000000000e+00 9.569806998109e-01 -2.901515814008e-01 0.000000000000e+00 9.569836678568e-01 -2.901417919833e-01 0.000000000000e+00 9.569829285615e-01 -2.901442304130e-01 0.000000000000e+00 9.569801954119e-01 -2.901532450091e-01 0.000000000000e+00 9.569764321996e-01 -2.901656565043e-01 0.000000000000e+00 9.569721347687e-01 -2.901798292029e-01 0.000000000000e+00 9.569674701488e-01 -2.901952120159e-01 0.000000000000e+00 9.569622977695e-01 -2.902122682585e-01 0.000000000000e+00 9.569559983055e-01 -2.902330396545e-01 0.000000000000e+00 9.569465527791e-01 -2.902641816073e-01 0.000000000000e+00 9.569266627970e-01 -2.903297470606e-01 0.000000000000e+00 9.568692118245e-01 -2.905190380377e-01 0.000000000000e+00 9.566754885392e-01 -2.911563319394e-01 0.000000000000e+00 9.559246825697e-01 -2.936119909915e-01 0.000000000000e+00 1.991164172563e-01 9.799758427528e-01 0.000000000000e+00 1.967194955972e-01 9.804598105236e-01 0.000000000000e+00 1.954643505614e-01 9.807108073533e-01 0.000000000000e+00 1.948753174740e-01 9.808280229680e-01 0.000000000000e+00 1.946734614286e-01 9.808681070437e-01 0.000000000000e+00 1.947498436926e-01 9.808529443203e-01 0.000000000000e+00 1.950635297334e-01 9.807906093392e-01 0.000000000000e+00 1.956278470467e-01 9.806782068853e-01 0.000000000000e+00 1.966001679594e-01 9.804837448721e-01 0.000000000000e+00 1.988959054916e-01 9.800206216089e-01 0.000000000000e+00 2.379606528304e-01 9.712747951556e-01 0.000000000000e+00 9.818180103548e-01 -1.898246415586e-01 0.000000000000e+00 9.812323657904e-01 -1.928290546712e-01 0.000000000000e+00 9.810268960960e-01 -1.938716821413e-01 0.000000000000e+00 9.809143205781e-01 -1.944404682284e-01 0.000000000000e+00 9.808327975086e-01 -1.948512851678e-01 0.000000000000e+00 9.807891738008e-01 -1.950707475638e-01 0.000000000000e+00 9.807572910447e-01 -1.952309813087e-01 0.000000000000e+00 9.807355791410e-01 -1.953400210069e-01 0.000000000000e+00 9.807213199514e-01 -1.954115978972e-01 0.000000000000e+00 9.807121444552e-01 -1.954576417490e-01 0.000000000000e+00 9.807063294117e-01 -1.954868165680e-01 0.000000000000e+00 9.807027822373e-01 -1.955046109736e-01 0.000000000000e+00 9.807010031249e-01 -1.955135352599e-01 0.000000000000e+00 9.807010622345e-01 -1.955132387645e-01 0.000000000000e+00 9.807034199935e-01 -1.955014117932e-01 0.000000000000e+00 9.807077478814e-01 -1.954797003411e-01 0.000000000000e+00 9.807081423122e-01 -1.954777214992e-01 0.000000000000e+00 9.806763590869e-01 -1.956371097926e-01 0.000000000000e+00 9.805064111253e-01 -1.964870930678e-01 0.000000000000e+00 0.000000000000e+00 0.000000000000e+00 1.000000000000e+00 1.057217214148e-01 9.943957550297e-01 0.000000000000e+00 1.000408251349e-01 9.949833331802e-01 0.000000000000e+00 9.918118704317e-02 9.950693906139e-01 0.000000000000e+00 9.938280953942e-02 9.950492737388e-01 0.000000000000e+00 9.953373563343e-02 9.950341880915e-01 0.000000000000e+00 9.936340038801e-02 9.950512120807e-01 0.000000000000e+00 9.885480864643e-02 9.951018675530e-01 0.000000000000e+00 9.797638738653e-02 9.951887396442e-01 0.000000000000e+00 9.650025175673e-02 9.953329600746e-01 0.000000000000e+00 9.310281514264e-02 9.956564999097e-01 0.000000000000e+00 3.303712870453e-02 9.994541250738e-01 0.000000000000e+00 0.000000000000e+00 0.000000000000e+00 1.000000000000e+00 0.000000000000e+00 0.000000000000e+00 1.000000000000e+00 0.000000000000e+00 0.000000000000e+00 1.000000000000e+00 9.950312177291e-01 -9.956342573691e-02 0.000000000000e+00 9.950586941729e-01 -9.928844419603e-02 0.000000000000e+00 9.951136746312e-01 -9.873588284913e-02 0.000000000000e+00 9.951463293169e-01 -9.840621548975e-02 0.000000000000e+00 9.951684268612e-01 -9.818249425752e-02 0.000000000000e+00 9.951848596036e-01 -9.801579064503e-02 0.000000000000e+00 9.951985733256e-01 -9.787645095062e-02 0.000000000000e+00 9.952116073399e-01 -9.774383159994e-02 0.000000000000e+00 9.952254633634e-01 -9.760264890463e-02 0.000000000000e+00 9.952411412978e-01 -9.744265322867e-02 0.000000000000e+00 9.952588426656e-01 -9.726168873680e-02 0.000000000000e+00 9.952769549008e-01 -9.707617134724e-02 0.000000000000e+00 9.952893881849e-01 -9.694861405183e-02 0.000000000000e+00 9.952786765428e-01 -9.705851853032e-02 0.000000000000e+00 9.951973864401e-01 -9.788851833957e-02 0.000000000000e+00 9.949144116060e-01 -1.007239473945e-01 0.000000000000e+00 9.939869580558e-01 -1.094985260860e-01 0.000000000000e+00 -8.170502681724e-03 9.999666208859e-01 0.000000000000e+00 8.345290853390e-04 9.999996517805e-01 0.000000000000e+00 1.415095493811e-03 9.999989987519e-01 0.000000000000e+00 1.197287666639e-04 9.999999928325e-01 0.000000000000e+00 -1.101094370369e-03 9.999993937954e-01 0.000000000000e+00 -1.709387057074e-03 9.999985389969e-01 0.000000000000e+00 -1.690789467012e-03 9.999985706145e-01 0.000000000000e+00 -8.516278092430e-04 9.999996373650e-01 0.000000000000e+00 1.152797912468e-03 9.999993355283e-01 0.000000000000e+00 6.070034249615e-03 9.999815771724e-01 0.000000000000e+00 4.954863353352e-02 9.987717121119e-01 0.000000000000e+00 0.000000000000e+00 0.000000000000e+00 1.000000000000e+00 0.000000000000e+00 0.000000000000e+00 1.000000000000e+00 0.000000000000e+00 0.000000000000e+00 1.000000000000e+00 0.000000000000e+00 0.000000000000e+00 1.000000000000e+00 9.999898614807e-01 4.502991881804e-03 0.000000000000e+00 0.000000000000e+00 0.000000000000e+00 1.000000000000e+00 0.000000000000e+00 0.000000000000e+00 1.000000000000e+00 0.000000000000e+00 0.000000000000e+00 1.000000000000e+00 0.000000000000e+00 0.000000000000e+00 1.000000000000e+00 0.000000000000e+00 0.000000000000e+00 1.000000000000e+00 0.000000000000e+00 0.000000000000e+00 1.000000000000e+00 0.000000000000e+00 0.000000000000e+00 1.000000000000e+00 0.000000000000e+00 0.000000000000e+00 1.000000000000e+00 9.999982357869e-01 -1.878409745050e-03 0.000000000000e+00 9.999968242293e-01 -2.520224451205e-03 0.000000000000e+00 9.999950697955e-01 -3.140124953986e-03 0.000000000000e+00 9.999936608644e-01 -3.560650361170e-03 0.000000000000e+00 9.999945602252e-01 -3.298411734504e-03 0.000000000000e+00 9.999993920815e-01 -1.102649853624e-03 0.000000000000e+00 9.999787070959e-01 6.525745544217e-03 0.000000000000e+00 
        </DataArray>
        <DataArray type="Float64" Name="NORMSTRESS_2" NumberOfComponents="3" format="ascii">
          0.000000000000e+00 0.000000000000e+00 1.000000000000e+00 0.000000000000e+00 0.000000000000e+00 1.000000000000e+00 0.000000000000e+00 0.000000000000e+00 1.000000000000e+00 0.000000000000e+00 0.000000000000e+00 1.000000000000e+00 0.000000000000e+00 0.000000000000e+00 1.000000000000e+00 0.000000000000e+00 0.000000000000e+00 1.000000000000e+00 0.000000000000e+00 0.000000000000e+00 1.000000000000e+00 0.000000000000e+00 0.000000000000e+00 1.000000000000e+00 0.000000000000e+00 0.000000000000e+00 1.000000000000e+00 0.000000000000e+00 0.000000000000e+00 1.000000000000e+00 0.000000000000e+00 0.000000000000e+00 1.000000000000e+00 0.000000000000e+00 0.000000000000e+00 1.000000000000e+00 0.000000000000e+00 0.000000000000e+00 1.000000000000e+00 0.000000000000e+00 0.000000000000e+00 1.000000000000e+00 0.000000000000e+00 0.000000000000e+00 1.000000000000e+00 0.000000000000e+00 0.000000000000e+00 1.000000000000e+00 0.000000000000e+00 0.000000000000e+00 1.000000000000e+00 0.000000000000e+00 0.000000000000e+00 1.000000000000e+00 0.000000000000e+00 0.000000000000e+00 1.000000000000e+00 0.000000000000e+00 0.000000000000e+00 1.000000000000e+00 0.000000000000e+00 0.000000000000e+00 1.000000000000e+00 0.000000000000e+00 0.000000000000e+00 1.000000000000e+00 0.000000000000e+00 0.000000000000e+00 1.000000000000e+00 0.000000000000e+00 0.000000000000e+00 1.000000000000e+00 0.000000000000e+00 0.000000000000e+00 1.000000000000e+00 0.000000000000e+00 0.000000000000e+00 1.000000000000e+00 0.000000000000e+00 0.000000000000e+00 1.000000000000e+00 0.000000000000e+00 0.000000000000e+00 1.000000000000e+00 0.000000000000e+00 0.000000000000e+00 1.000000000000e+00 0.000000000000e+00 0.000000000000e+00 1.000000000000e+00 0.000000000000e+00 0.000000000000e+00 1.000000000000e+00 0.000000000000e+00 0.000000000000e+00 1.000000000000e+00 0.000000000000e+00 0.000000000000e+00 1.000000000000e+00 0.000000000000e+00 0.000000000000e+00 1.000000000000e+00 0.000000000000e+00 0.000000000000e+00 1.000000000000e+00 0.000000000000e+00 0.000000000000e+00 1.000000000000e+00 0.000000000000e+00 0.000000000000e+00 1.000000000000e+00 0.000000000000e+00 0.000000000000e+00 1.000000000000e+00 0.000000000000e+00 0.000000000000e+00 1.000000000000e+00 0.000000000000e+00 0.000000000000e+00 1.000000000000e+00 0.000000000000e+00 0.000000000000e+00 1.000000000000e+00 0.000000000000e+00 0.000000000000e+00 1.000000000000e+00 0.000000000000e+00 0.000000000000e+00 1.000000000000e+00 0.000000000000e+00 0.000000000000e+00 1.000000000000e+00 0.000000000000e+00 0.000000000000e+00 1.000000000000e+00 0.000000000000e+00 0.000000000000e+00 1.000000000000e+00 0.000000000000e+00 0.000000000000e+00 1.000000000000e+00 0.000000000000e+00 0.000000000000e+00 1.000000000000e+00 0.000000000000e+00 0.000000000000e+00 1.000000000000e+00 0.000000000000e+00 0.000000000000e+00 1.000000000000e+00 0.000000000000e+00 0.000000000000e+00 1.000000000000e+00 0.000000000000e+00 0.000000000000e+00 1.000000000000e+00 0.000000000000e+00 0.000000000000e+00 1.000000000000e+00 0.000000000000e+00 0.000000000000e+00 1.000000000000e+00 0.000000000000e+00 0.000000000000e+00 1.000000000000e+00 0.000000000000e+00 0.000000000000e+00 1.000000000000e+00 0.000000000000e+00 0.000000000000e+00 1.000000000000e+00 0.000000000000e+00 0.000000000000e+00 1.000000000000e+00 0.000000000000e+00 0.000000000000e+00 1.000000000000e+00 0.000000000000e+00 0.000000000000e+00 1.000000000000e+00 0.000000000000e+00 0.000000000000e+00 1.000000000000e+00 0.000000000000e+00 0.000000000000e+00 1.000000000000e+00 0.000000000000e+00 0.000000000000e+00 1.000000000000e+00 0.000000000000e+00 0.000000000000e+00 1.000000000000e+00 0.000000000000e+00 0.000000000000e+00 1.000000000000e+00 0.000000000000e+00 0.000000000000e+00 1.000000000000e+00 0.000000000000e+00 0.000000000000e+00 1.000000000000e+00 0.000000000000e+00 0.000000000000e+00 1.000000000000e+00 0.000000000000e+00 0.000000000000e+00 1.000000000000e+00 0.000000000000e+00 0.000000000000e+00 1.000000000000e+00 0.000000000000e+00 0.000000000000e+00 1.000000000000e+00 0.000000000000e+00 0.000000000000e+00 1.000000000000e+00 0.000000000000e+00 0.000000000000e+00 1.000000000000e+00 0.000000000000e+00 0.000000000000e+00 1.000000000000e+00 0.000000000000e+00 0.000000000000e+00 1.000000000000e+00 0.000000000000e+00 0.000000000000e+00 1.000000000000e+00 0.000000000000e+00 0.000000000000e+00 1.000000000000e+00 0.000000000000e+00 0.000000000000e+00 1.000000000000e+00 0.000000000000e+00 0.000000000000e+00 1.000000000000e+00 0.000000000000e+00 0.000000000000e+00 1.000000000000e+00 0.000000000000e+00 0.000000000000e+00 1.000000000000e+00 0.000000000000e+00 0.000000000000e+00 1.000000000000e+00 0.000000000000e+00 0.000000000000e+00 1.000000000000e+00 0.000000000000e+00 0.000000000000e+00 1.000000000000e+00 0.000000000000e+00 0.000000000000e+00 1.000000000000e+00 0.000000000000e+00 0.000000000000e+00 1.000000000000e+00 0.000000000000e+00 0.000000000000e+00 1.000000000000e+00 0.000000000000e+00 0.000000000000e+00 1.000000000000e+00 0.000000000000e+00 0.000000000000e+00 1.000000000000e+00 0.000000000000e+00 0.000000000000e+00 1.000000000000e+00 0.000000000000e+00 0.000000000000e+00 1.000000000000e+00 0.000000000000e+00 0.000000000000e+00 1.000000000000e+00 0.000000000000e+00 0.000000000000e+00 1.000000000000e+00 0.000000000000e+00 0.000000000000e+00 1.000000000000e+00 0.000000000000e+00 0.000000000000e+00 1.000000000000e+00 0.000000000000e+00 0.000000000000e+00 1.000000000000e+00 0.000000000000e+00 0.000000000000e+00 1.000000000000e+00 0.000000000000e+00 0.000000000000e+00 1.000000000000e+00 0.000000000000e+00 0.000000000000e+00 1.000000000000e+00 0.000000000000e+00 0.000000000000e+00 1.000000000000e+00 0.000000000000e+00 0.000000000000e+00 1.000000000000e+00 0.000000000000e+00 0.000000000000e+00 1.000000000000e+00 0.000000000000e+00 0.000000000000e+00 1.000000000000e+00 0.000000000000e+00 0.000000000000e+00 1.000000000000e+00 0.000000000000e+00 0.000000000000e+00 1.000000000000e+00 0.000000000000e+00 0.000000000000e+00 1.000000000000e+00 0.000000000000e+00 0.000000000000e+00 1.000000000000e+00 0.000000000000e+00 0.000000000000e+00 1.000000000000e+00 0.000000000000e+00 0.000000000000e+00 1.000000000000e+00 0.000000000000e+00 0.000000000000e+00 1.000000000000e+00 0.000000000000e+00 0.000000000000e+00 1.000000000000e+00 0.000000000000e+00 0.000000000000e+00 1.000000000000e+00 0.000000000000e+00 0.000000000000e+00 1.000000000000e+00 0.000000000000e+00 0.000000000000e+00 1.000000000000e+00 0.000000000000e+00 0.000000000000e+00 1.000000000000e+00 0.000000000000e+00 0.000000000000e+00 1.000000000000e+00 0.000000000000e+00 0.000000000000e+00 1.000000000000e+00 0.000000000000e+00 0.000000000000e+00 1.000000000000e+00 0.000000000000e+00 0.000000000000e+00 1.000000000000e+00 0.000000000000e+00 0.000000000000e+00 1.000000000000e+00 0.000000000000e+00 0.000000000000e+00 1.000000000000e+00 0.000000000000e+00 0.000000000000e+00 1.000000000000e+00 0.000000000000e+00 0.000000000000e+00 1.000000000000e+00 0.000000000000e+00 0.000000000000e+00 1.000000000000e+00 0.000000000000e+00 0.000000000000e+00 1.000000000000e+00 0.000000000000e+00 0.000000000000e+00 1.000000000000e+00 0.000000000000e+00 0.000000000000e+00 1.000000000000e+00 0.000000000000e+00 0.000000000000e+00 1.000000000000e+00 0.000000000000e+00 0.000000000000e+00 1.000000000000e+00 0.000000000000e+00 0.000000000000e+00 1.000000000000e+00 0.000000000000e+00 0.000000000000e+00 1.000000000000e+00 0.000000000000e+00 0.000000000000e+00 1.000000000000e+00 0.000000000000e+00 0.000000000000e+00 1.000000000000e+00 0.000000000000e+00 0.000000000000e+00 1.000000000000e+00 0.000000000000e+00 0.000000000000e+00 1.000000000000e+00 0.000000000000e+00 0.000000000000e+00 1.000000000000e+00 0.000000000000e+00 0.000000000000e+00 1.000000000000e+00 0.000000000000e+00 0.000000000000e+00 1.000000000000e+00 0.000000000000e+00 0.000000000000e+00 1.000000000000e+00 0.000000000000e+00 0.000000000000e+00 1.000000000000e+00 0.000000000000e+00 0.000000000000e+00 1.000000000000e+00 0.000000000000e+00 0.000000000000e+00 1.000000000000e+00 0.000000000000e+00 0.000000000000e+00 1.000000000000e+00 0.000000000000e+00 0.000000000000e+00 1.000000000000e+00 0.000000000000e+00 0.000000000000e+00 1.000000000000e+00 0.000000000000e+00 0.000000000000e+00 1.000000000000e+00 0.000000000000e+00 0.000000000000e+00 1.000000000000e+00 0.000000000000e+00 0.000000000000e+00 1.000000000000e+00 0.000000000000e+00 0.000000000000e+00 1.000000000000e+00 0.000000000000e+00 0.000000000000e+00 1.000000000000e+00 0.000000000000e+00 0.000000000000e+00 1.000000000000e+00 0.000000000000e+00 0.000000000000e+00 1.000000000000e+00 0.000000000000e+00 0.000000000000e+00 1.000000000000e+00 0.000000000000e+00 0.000000000000e+00 1.000000000000e+00 0.000000000000e+00 0.000000000000e+00 1.000000000000e+00 0.000000000000e+00 0.000000000000e+00 1.000000000000e+00 0.000000000000e+00 0.000000000000e+00 1.000000000000e+00 0.000000000000e+00 0.000000000000e+00 1.000000000000e+00 0.000000000000e+00 0.000000000000e+00 1.000000000000e+00 0.000000000000e+00 0.000000000000e+00 1.000000000000e+00 0.000000000000e+00 0.000000000000e+00 1.000000000000e+00 0.000000000000e+00 0.000000000000e+00 1.000000000000e+00 0.000000000000e+00 0.000000000000e+00 1.000000000000e+00 0.000000000000e+00 0.000000000000e+00 1.000000000000e+00 0.000000000000e+00 0.000000000000e+00 1.000000000000e+00 0.000000000000e+00 0.000000000000e+00 1.000000000000e+00 0.000000000000e+00 0.000000000000e+00 1.000000000000e+00 0.000000000000e+00 0.000000000000e+00 1.000000000000e+00 0.000000000000e+00 0.000000000000e+00 1.000000000000e+00 0.000000000000e+00 0.000000000000e+00 1.000000000000e+00 0.000000000000e+00 0.000000000000e+00 1.000000000000e+00 0.000000000000e+00 0.000000000000e+00 1.000000000000e+00 0.000000000000e+00 0.000000000000e+00 1.000000000000e+00 0.000000000000e+00 0.000000000000e+00 1.000000000000e+00 0.000000000000e+00 0.000000000000e+00 1.000000000000e+00 0.000000000000e+00 0.000000000000e+00 1.000000000000e+00 0.000000000000e+00 0.000000000000e+00 1.000000000000e+00 0.000000000000e+00 0.000000000000e+00 1.000000000000e+00 0.000000000000e+00 0.000000000000e+00 1.000000000000e+00 0.000000000000e+00 0.000000000000e+00 1.000000000000e+00 0.000000000000e+00 0.000000000000e+00 1.000000000000e+00 0.000000000000e+00 0.000000000000e+00 1.000000000000e+00 0.000000000000e+00 0.000000000000e+00 1.000000000000e+00 0.000000000000e+00 0.000000000000e+00 1.000000000000e+00 0.000000000000e+00 0.000000000000e+00 1.000000000000e+00 0.000000000000e+00 0.000000000000e+00 1.000000000000e+00 0.000000000000e+00 0.000000000000e+00 1.000000000000e+00 0.000000000000e+00 0.000000000000e+00 1.000000000000e+00 0.000000000000e+00 0.000000000000e+00 1.000000000000e+00 0.000000000000e+00 0.000000000000e+00 1.000000000000e+00 0.000000000000e+00 0.000000000000e+00 1.000000000000e+00 0.000000000000e+00 0.000000000000e+00 1.000000000000e+00 0.000000000000e+00 0.000000000000e+00 1.000000000000e+00 0.000000000000e+00 0.000000000000e+00 1.000000000000e+00 0.000000000000e+00 0.000000000000e+00 1.000000000000e+00 0.000000000000e+00 0.000000000000e+00 1.000000000000e+00 0.000000000000e+00 0.000000000000e+00 1.000000000000e+00 0.000000000000e+00 0.000000000000e+00 1.000000000000e+00 0.000000000000e+00 0.000000000000e+00 1.000000000000e+00 0.000000000000e+00 0.000000000000e+00 1.000000000000e+00 0.000000000000e+00 0.000000000000e+00 1.000000000000e+00 0.000000000000e+00 0.000000000000e+00 1.000000000000e+00 0.000000000000e+00 0.000000000000e+00 1.000000000000e+00 0.000000000000e+00 0.000000000000e+00 1.000000000000e+00 0.000000000000e+00 0.000000000000e+00 1.000000000000e+00 0.000000000000e+00 0.000000000000e+00 1.000000000000e+00 0.000000000000e+00 0.000000000000e+00 1.000000000000e+00 0.000000000000e+00 0.000000000000e+00 1.000000000000e+00 0.000000000000e+00 0.000000000000e+00 1.000000000000e+00 0.000000000000e+00 0.000000000000e+00 1.000000000000e+00 0.000000000000e+00 0.000000000000e+00 1.000000000000e+00 0.000000000000e+00 0.000000000000e+00 1.000000000000e+00 0.000000000000e+00 0.000000000000e+00 1.000000000000e+00 0.000000000000e+00 0.000000000000e+00 1.000000000000e+00 0.000000000000e+00 0.000000000000e+00 1.000000000000e+00 0.000000000000e+00 0.000000000000e+00 1.000000000000e+00 0.000000000000e+00 0.000000000000e+00 1.000000000000e+00 0.000000000000e+00 0.000000000000e+00 1.000000000000e+00 0.000000000000e+00 0.000000000000e+00 1.000000000000e+00 0.000000000000e+00 0.000000000000e+00 1.000000000000e+00 0.000000000000e+00 0.000000000000e+00 1.000000000000e+00 0.000000000000e+00 0.000000000000e+00 1.000000000000e+00 0.000000000000e+00 0.000000000000e+00 1.000000000000e+00 0.000000000000e+00 0.000000000000e+00 1.000000000000e+00 0.000000000000e+00 0.000000000000e+00 1.000000000000e+00 0.000000000000e+00 0.000000000000e+00 1.000000000000e+00 0.000000000000e+00 0.000000000000e+00 1.000000000000e+00 0.000000000000e+00 0.000000000000e+00 1.000000000000e+00 0.000000000000e+00 0.000000000000e+00 1.000000000000e+00 0.000000000000e+00 0.000000000000e+00 1.000000000000e+00 0.000000000000e+00 0.000000000000e+00 1.000000000000e+00 0.000000000000e+00 0.000000000000e+00 1.000000000000e+00 0.000000000000e+00 0.000000000000e+00 1.000000000000e+00 0.000000000000e+00 0.000000000000e+00 1.000000000000e+00 0.000000000000e+00 0.000000000000e+00 1.000000000000e+00 0.000000000000e+00 0.000000000000e+00 1.000000000000e+00 0.000000000000e+00 0.000000000000e+00 1.000000000000e+00 0.000000000000e+00 0.000000000000e+00 1.000000000000e+00 0.000000000000e+00 0.000000000000e+00 1.000000000000e+00 0.000000000000e+00 0.000000000000e+00 1.000000000000e+00 0.000000000000e+00 0.000000000000e+00 1.000000000000e+00 0.000000000000e+00 0.000000000000e+00 1.000000000000e+00 0.000000000000e+00 0.000000000000e+00 1.000000000000e+00 0.000000000000e+00 0.000000000000e+00 1.000000000000e+00 0.000000000000e+00 0.000000000000e+00 1.000000000000e+00 0.000000000000e+00 0.000000000000e+00 1.000000000000e+00 0.000000000000e+00 0.000000000000e+00 1.000000000000e+00 0.000000000000e+00 0.000000000000e+00 1.000000000000e+00 0.000000000000e+00 0.000000000000e+00 1.000000000000e+00 0.000000000000e+00 0.000000000000e+00 1.000000000000e+00 0.000000000000e+00 0.000000000000e+00 1.000000000000e+00 0.000000000000e+00 0.000000000000e+00 1.000000000000e+00 0.000000000000e+00 0.000000000000e+00 1.000000000000e+00 0.000000000000e+00 0.000000000000e+00 1.000000000000e+00 0.000000000000e+00 0.000000000000e+00 1.000000000000e+00 0.000000000000e+00 0.000000000000e+00 1.000000000000e+00 0.000000000000e+00 0.000000000000e+00 1.000000000000e+00 0.000000000000e+00 0.000000000000e+00 1.000000000000e+00 0.000000000000e+00 0.000000000000e+00 1.000000000000e+00 0.000000000000e+00 0.000000000000e+00 1.000000000000e+00 0.000000000000e+00 0.000000000000e+00 1.000000000000e+00 0.000000000000e+00 0.000000000000e+00 1.000000000000e+00 0.000000000000e+00 0.000000000000e+00 1.000000000000e+00 0.000000000000e+00 0.000000000000e+00 1.000000000000e+00 0.000000000000e+00 0.000000000000e+00 1.000000000000e+00 0.000000000000e+00 0.000000000000e+00 1.000000000000e+00 0.000000000000e+00 0.000000000000e+00 1.000000000000e+00 0.000000000000e+00 0.000000000000e+00 1.000000000000e+00 0.000000000000e+00 0.000000000000e+00 1.000000000000e+00 0.000000000000e+00 0.000000000000e+00 1.000000000000e+00 0.000000000000e+00 0.000000000000e+00 1.000000000000e+00 0.000000000000e+00 0.000000000000e+00 1.000000000000e+00 0.000000000000e+00 0.000000000000e+00 1.000000000000e+00 0.000000000000e+00 0.000000000000e+00 1.000000000000e+00 0.000000000000e+00 0.000000000000e+00 1.000000000000e+00 0.000000000000e+00 0.000000000000e+00 1.000000000000e+00 0.000000000000e+00 0.000000000000e+00 1.000000000000e+00 0.000000000000e+00 0.000000000000e+00 1.000000000000e+00 0.000000000000e+00 0.000000000000e+00 1.000000000000e+00 0.000000000000e+00 0.000000000000e+00 1.000000000000e+00 0.000000000000e+00 0.000000000000e+00 1.000000000000e+00 0.000000000000e+00 0.000000000000e+00 1.000000000000e+00 0.000000000000e+00 0.000000000000e+00 1.000000000000e+00 0.000000000000e+00 0.000000000000e+00 1.000000000000e+00 0.000000000000e+00 0.000000000000e+00 1.000000000000e+00 0.000000000000e+00 0.000000000000e+00 1.000000000000e+00 0.000000000000e+00 0.000000000000e+00 1.000000000000e+00 0.000000000000e+00 0.000000000000e+00 1.000000000000e+00 0.000000000000e+00 0.000000000000e+00 1.000000000000e+00 0.000000000000e+00 0.000000000000e+00 1.000000000000e+00 0.000000000000e+00 0.000000000000e+00 1.000000000000e+00 0.000000000000e+00 0.000000000000e+00 1.000000000000e+00 0.000000000000e+00 0.000000000000e+00 1.000000000000e+00 0.000000000000e+00 0.000000000000e+00 1.000000000000e+00 0.000000000000e+00 0.000000000000e+00 1.000000000000e+00 0.000000000000e+00 0.000000000000e+00 1.000000000000e+00 0.000000000000e+00 0.000000000000e+00 1.000000000000e+00 0.000000000000e+00 0.000000000000e+00 1.000000000000e+00 0.000000000000e+00 0.000000000000e+00 1.000000000000e+00 0.000000000000e+00 0.000000000000e+00 1.000000000000e+00 0.000000000000e+00 0.000000000000e+00 1.000000000000e+00 0.000000000000e+00 0.000000000000e+00 1.000000000000e+00 0.000000000000e+00 0.000000000000e+00 1.000000000000e+00 0.000000000000e+00 0.000000000000e+00 1.000000000000e+00 0.000000000000e+00 0.000000000000e+00 1.000000000000e+00 0.000000000000e+00 0.000000000000e+00 1.000000000000e+00 0.000000000000e+00 0.000000000000e+00 1.000000000000e+00 0.000000000000e+00 0.000000000000e+00 1.000000000000e+00 0.000000000000e+00 0.000000000000e+00 1.000000000000e+00 0.000000000000e+00 0.000000000000e+00 1.000000000000e+00 0.000000000000e+00 0.000000000000e+00 1.000000000000e+00 0.000000000000e+00 0.000000000000e+00 1.000000000000e+00 0.000000000000e+00 0.000000000000e+00 1.000000000000e+00 0.000000000000e+00 0.000000000000e+00 1.000000000000e+00 0.000000000000e+00 0.000000000000e+00 1.000000000000e+00 0.000000000000e+00 0.000000000000e+00 1.000000000000e+00 0.000000000000e+00 0.000000000000e+00 1.000000000000e+00 0.000000000000e+00 0.000000000000e+00 1.000000000000e+00 0.000000000000e+00 0.000000000000e+00 1.000000000000e+00 0.000000000000e+00 0.000000000000e+00 1.000000000000e+00 0.000000000000e+00 0.000000000000e+00 1.000000000000e+00 0.000000000000e+00 0.000000000000e+00 1.000000000000e+00 0.000000000000e+00 0.000000000000e+00 1.000000000000e+00 0.000000000000e+00 0.000000000000e+00 1.000000000000e+00 0.000000000000e+00 0.000000000000e+00 1.000000000000e+00 0.000000000000e+00 0.000000000000e+00 1.000000000000e+00 0.000000000000e+00 0.000000000000e+00 1.000000000000e+00 0.000000000000e+00 0.000000000000e+00 1.000000000000e+00 0.000000000000e+00 0.000000000000e+00 1.000000000000e+00 0.000000000000e+00 0.000000000000e+00 1.000000000000e+00 0.000000000000e+00 0.000000000000e+00 1.000000000000e+00 0.000000000000e+00 0.000000000000e+00 1.000000000000e+00 0.000000000000e+00 0.000000000000e+00 1.000000000000e+00 0.000000000000e+00 0.000000000000e+00 1.000000000000e+00 0.000000000000e+00 0.000000000000e+00 1.000000000000e+00 0.000000000000e+00 0.000000000000e+00 1.000000000000e+00 0.000000000000e+00 0.000000000000e+00 1.000000000000e+00 0.000000000000e+00 0.000000000000e+00 1.000000000000e+00 0.000000000000e+00 0.000000000000e+00 1.000000000000e+00 0.000000000000e+00 0.000000000000e+00 1.000000000000e+00 0.000000000000e+00 0.000000000000e+00 1.000000000000e+00 0.000000000000e+00 0.000000000000e+00 1.000000000000e+00 0.000000000000e+00 0.000000000000e+00 1.000000000000e+00 0.000000000000e+00 0.000000000000e+00 1.000000000000e+00 0.000000000000e+00 0.000000000000e+00 1.000000000000e+00 0.000000000000e+00 0.000000000000e+00 1.000000000000e+00 0.000000000000e+00 0.000000000000e+00 1.000000000000e+00 0.000000000000e+00 0.000000000000e+00 1.000000000000e+00 0.000000000000e+00 0.000000000000e+00 1.000000000000e+00 0.000000000000e+00 0.000000000000e+00 1.000000000000e+00 0.000000000000e+00 0.000000000000e+00 1.000000000000e+00 0.000000000000e+00 0.000000000000e+00 1.000000000000e+00 0.000000000000e+00 0.000000000000e+00 1.000000000000e+00 0.000000000000e+00 0.000000000000e+00 1.000000000000e+00 0.000000000000e+00 0.000000000000e+00 1.000000000000e+00 0.000000000000e+00 0.000000000000e+00 1.000000000000e+00 0.000000000000e+00 0.000000000000e+00 1.000000000000e+00 0.000000000000e+00 0.000000000000e+00 1.000000000000e+00 0.000000000000e+00 0.000000000000e+00 1.000000000000e+00 0.000000000000e+00 0.000000000000e+00 1.000000000000e+00 0.000000000000e+00 0.000000000000e+00 1.000000000000e+00 0.000000000000e+00 0.000000000000e+00 1.000000000000e+00 0.000000000000e+00 0.000000000000e+00 1.000000000000e+00 0.000000000000e+00 0.000000000000e+00 1.000000000000e+00 0.000000000000e+00 0.000000000000e+00 1.000000000000e+00 0.000000000000e+00 0.000000000000e+00 1.000000000000e+00 0.000000000000e+00 0.000000000000e+00 1.000000000000e+00 0.000000000000e+00 0.000000000000e+00 1.000000000000e+00 0.000000000000e+00 0.000000000000e+00 1.000000000000e+00 0.000000000000e+00 0.000000000000e+00 1.000000000000e+00 0.000000000000e+00 0.000000000000e+00 1.000000000000e+00 0.000000000000e+00 0.000000000000e+00 1.000000000000e+00 0.000000000000e+00 0.000000000000e+00 1.000000000000e+00 0.000000000000e+00 0.000000000000e+00 1.000000000000e+00 0.000000000000e+00 0.000000000000e+00 1.000000000000e+00 0.000000000000e+00 0.000000000000e+00 1.000000000000e+00 0.000000000000e+00 0.000000000000e+00 1.000000000000e+00 0.000000000000e+00 0.000000000000e+00 1.000000000000e+00 0.000000000000e+00 0.000000000000e+00 1.000000000000e+00 0.000000000000e+00 0.000000000000e+00 1.000000000000e+00 0.000000000000e+00 0.000000000000e+00 1.000000000000e+00 0.000000000000e+00 0.000000000000e+00 1.000000000000e+00 9.236040304095e-01 -3.833478772750e-01 0.000000000000e+00 0.000000000000e+00 0.000000000000e+00 1.000000000000e+00 0.000000000000e+00 0.000000000000e+00 1.000000000000e+00 0.000000000000e+00 0.000000000000e+00 1.000000000000e+00 0.000000000000e+00 0.000000000000e+00 1.000000000000e+00 0.000000000000e+00 0.000000000000e+00 1.000000000000e+00 0.000000000000e+00 0.000000000000e+00 1.000000000000e+00 0.000000000000e+00 0.000000000000e+00 1.000000000000e+00 0.000000000000e+00 0.000000000000e+00 1.000000000000e+00 0.000000000000e+00 0.000000000000e+00 1.000000000000e+00 0.000000000000e+00 0.000000000000e+00 1.000000000000e+00 0.000000000000e+00 0.000000000000e+00 1.000000000000e+00 0.000000000000e+00 0.000000000000e+00 1.000000000000e+00 0.000000000000e+00 0.000000000000e+00 1.000000000000e+00 0.000000000000e+00 0.000000000000e+00 1.000000000000e+00 0.000000000000e+00 0.000000000000e+00 1.000000000000e+00 0.000000000000e+00 0.000000000000e+00 1.000000000000e+00 0.000000000000e+00 0.000000000000e+00 1.000000000000e+00 0.000000000000e+00 0.000000000000e+00 1.000000000000e+00 0.000000000000e+00 0.000000000000e+00 1.000000000000e+00 0.000000000000e+00 0.000000000000e+00 1.000000000000e+00 0.000000000000e+00 0.000000000000e+00 1.000000000000e+00 0.000000000000e+00 0.000000000000e+00 1.000000000000e+00 0.000000000000e+00 0.000000000000e+00 1.000000000000e+00 0.000000000000e+00 0.000000000000e+00 1.000000000000e+00 0.000000000000e+00 0.000000000000e+00 1.000000000000e+00 0.000000000000e+00 0.000000000000e+00 1.000000000000e+00 0.000000000000e+00 0.000000000000e+00 1.000000000000e+00 0.000000000000e+00 0.000000000000e+00 1.000000000000e+00 0.000000000000e+00 0.000000000000e+00 1.000000000000e+00 0.000000000000e+00 0.000000000000e+00 1.000000000000e+00 9.592089814019e-01 -2.826979483441e-01 0.000000000000e+00 0.000000000000e+00 0.000000000000e+00 1.000000000000e+00 0.000000000000e+00 0.000000000000e+00 1.000000000000e+00 0.000000000000e+00 0.000000000000e+00 1.000000000000e+00 0.000000000000e+00 0.000000000000e+00 1.000000000000e+00 0.000000000000e+00 0.000000000000e+00 1.000000000000e+00 0.000000000000e+00 0.000000000000e+00 1.000000000000e+00 0.000000000000e+00 0.000000000000e+00 1.000000000000e+00 0.000000000000e+00 0.000000000000e+00 1.000000000000e+00 0.000000000000e+00 0.000000000000e+00 1.000000000000e+00 0.000000000000e+00 0.000000000000e+00 1.000000000000e+00 0.000000000000e+00 0.000000000000e+00 1.000000000000e+00 0.000000000000e+00 0.000000000000e+00 1.000000000000e+00 0.000000000000e+00 0.000000000000e+00 1.000000000000e+00 0.000000000000e+00 0.000000000000e+00 1.000000000000e+00 0.000000000000e+00 0.000000000000e+00 1.000000000000e+00 0.000000000000e+00 0.000000000000e+00 1.000000000000e+00 0.000000000000e+00 0.000000000000e+00 1.000000000000e+00 0.000000000000e+00 0.000000000000e+00 1.000000000000e+00 0.000000000000e+00 0.000000000000e+00 1.000000000000e+00 0.000000000000e+00 0.000000000000e+00 1.000000000000e+00 0.000000000000e+00 0.000000000000e+00 1.000000000000e+00 0.000000000000e+00 0.000000000000e+00 1.000000000000e+00 0.000000000000e+00 0.000000000000e+00 1.000000000000e+00 0.000000000000e+00 0.000000000000e+00 1.000000000000e+00 0.000000000000e+00 0.000000000000e+00 1.000000000000e+00 0.000000000000e+00 0.000000000000e+00 1.000000000000e+00 9.807906093392e-01 -1.950635297334e-01 0.000000000000e+00 9.806782068853e-01 -1.956278470467e-01 0.000000000000e+00 9.804837448721e-01 -1.966001679594e-01 0.000000000000e+00 9.800206216089e-01 -1.988959054916e-01 0.000000000000e+00 9.712747951556e-01 -2.379606528304e-01 0.000000000000e+00 0.000000000000e+00 0.000000000000e+00 1.000000000000e+00 0.000000000000e+00 0.000000000000e+00 1.000000000000e+00 0.000000000000e+00 0.000000000000e+00 1.000000000000e+00 0.000000000000e+00 0.000000000000e+00 1.000000000000e+00 0.000000000000e+00 0.000000000000e+00 1.000000000000e+00 0.000000000000e+00 0.000000000000e+00 1.000000000000e+00 0.000000000000e+00 0.000000000000e+00 1.000000000000e+00 0.000000000000e+00 0.000000000000e+00 1.000000000000e+00 0.000000000000e+00 0.000000000000e+00 1.000000000000e+00 0.000000000000e+00 0.000000000000e+00 1.000000000000e+00 0.000000000000e+00 0.000000000000e+00 1.000000000000e+00 0.000000000000e+00 0.000000000000e+00 1.000000000000e+00 0.000000000000e+00 0.000000000000e+00 1.000000000000e+00 0.000000000000e+00 0.000000000000e+00 1.000000000000e+00 0.000000000000e+00 0.000000000000e+00 1.000000000000e+00 0.000000000000e+00 0.000000000000e+00 1.000000000000e+00 0.000000000000e+00 0.000000000000e+00 1.000000000000e+00 0.000000000000e+00 0.000000000000e+00 1.000000000000e+00 0.000000000000e+00 0.000000000000e+00 1.000000000000e+00 9.797657911411e-01 -2.001474319338e-01 0.000000000000e+00 9.943957550297e-01 -1.057217214148e-01 0.000000000000e+00 9.949833331802e-01 -1.000408251349e-01 0.000000000000e+00 9.950693906139e-01 -9.918118704317e-02 0.000000000000e+00 0.000000000000e+00 0.000000000000e+00 1.000000000000e+00 0.000000000000e+00 0.000000000000e+00 1.000000000000e+00 0.000000000000e+00 0.000000000000e+00 1.000000000000e+00 0.000000000000e+00 0.000000000000e+00 1.000000000000e+00 0.000000000000e+00 0.000000000000e+00 1.000000000000e+00 0.000000000000e+00 0.000000000000e+00 1.000000000000e+00 0.000000000000e+00 0.000000000000e+00 1.000000000000e+00 0.000000000000e+00 0.000000000000e+00 1.000000000000e+00 9.943378230735e-01 -1.062652041146e-01 0.000000000000e+00 9.948001697136e-01 -1.018460717840e-01 0.000000000000e+00 9.949543046533e-01 -1.003291166700e-01 0.000000000000e+00 0.000000000000e+00 0.000000000000e+00 1.000000000000e+00 0.000000000000e+00 0.000000000000e+00 1.000000000000e+00 0.000000000000e+00 0.000000000000e+00 1.000000000000e+00 0.000000000000e+00 0.000000000000e+00 1.000000000000e+00 0.000000000000e+00 0.000000000000e+00 1.000000000000e+00 0.000000000000e+00 0.000000000000e+00 1.000000000000e+00 0.000000000000e+00 0.000000000000e+00 1.000000000000e+00 0.000000000000e+00 0.000000000000e+00 1.000000000000e+00 0.000000000000e+00 0.000000000000e+00 1.000000000000e+00 0.000000000000e+00 0.000000000000e+00 1.000000000000e+00 0.000000000000e+00 0.000000000000e+00 1.000000000000e+00 0.000000000000e+00 0.000000000000e+00 1.000000000000e+00 0.000000000000e+00 0.000000000000e+00 1.000000000000e+00 0.000000000000e+00 0.000000000000e+00 1.000000000000e+00 0.000000000000e+00 0.000000000000e+00 1.000000000000e+00 0.000000000000e+00 0.000000000000e+00 1.000000000000e+00 0.000000000000e+00 0.000000000000e+00 1.000000000000e+00 0.000000000000e+00 0.000000000000e+00 1.000000000000e+00 0.000000000000e+00 0.000000000000e+00 1.000000000000e+00 9.999989987519e-01 -1.415095493811e-03 0.000000000000e+00 9.999999928325e-01 -1.197287666639e-04 0.000000000000e+00 9.999993937954e-01 1.101094370369e-03 0.000000000000e+00 9.999985389969e-01 1.709387057074e-03 0.000000000000e+00 9.999985706145e-01 1.690789467012e-03 0.000000000000e+00 9.999996373650e-01 8.516278092430e-04 0.000000000000e+00 0.000000000000e+00 0.000000000000e+00 1.000000000000e+00 0.000000000000e+00 0.000000000000e+00 1.000000000000e+00 0.000000000000e+00 0.000000000000e+00 1.000000000000e+00 9.998017295240e-01 1.991234895405e-02 0.000000000000e+00 9.999522177778e-01 9.775590070522e-03 0.000000000000e+00 9.999777114170e-01 6.676576164068e-03 0.000000000000e+00 9.999867854470e-01 5.140907638209e-03 0.000000000000e+00 0.000000000000e+00 0.000000000000e+00 1.000000000000e+00 9.999949652122e-01 3.173255465202e-03 0.000000000000e+00 9.999974383500e-01 2.263469315062e-03 0.000000000000e+00 9.999988134622e-01 1.540478570002e-03 0.000000000000e+00 9.999995717899e-01 9.254296228024e-04 0.000000000000e+00 9.999999319047e-01 3.690400608109e-04 0.000000000000e+00 9.999999864657e-01 -1.645256518124e-04 0.000000000000e+00 9.999997524515e-01 -7.036311992753e-04 0.000000000000e+00 9.999991928613e-01 -1.270541940629e-03 0.000000000000e+00 0.000000000000e+00 0.000000000000e+00 1.000000000000e+00 0.000000000000e+00 0.000000000000e+00 1.000000000000e+00 0.000000000000e+00 0.000000000000e+00 1.000000000000e+00 0.000000000000e+00 0.000000000000e+00 1.000000000000e+00 0.000000000000e+00 0.000000000000e+00 1.000000000000e+00 0.000000000000e+00 0.000000000000e+00 1.000000000000e+00 0.000000000000e+00 0.000000000000e+00 1.000000000000e+00 
        </DataArray>
        <DataArray type="Float64" Name="NORMSTRESS_3" NumberOfComponents="3" format="ascii">
          2.218353675016e-03 9.999975394505e-01 0.000000000000e+00 1.881118844747e-03 9.999982306944e-01 0.000000000000e+00 1.533912755091e-03 9.999988235551e-01 0.000000000000e+00 1.223213411899e-03 9.999992518742e-01 0.000000000000e+00 9.413681409400e-04 9.999995569129e-01 0.000000000000e+00 6.848064340775e-04 9.999997655200e-01 0.000000000000e+00 4.493929277186e-04 9.999998990230e-01 0.000000000000e+00 1.842331343637e-04 9.999999830291e-01 0.000000000000e+00 -1.948745355680e-04 9.999999810120e-01 0.000000000000e+00 -1.042006563828e-03 9.999994571110e-01 0.000000000000e+00 -1.656348002675e-02 9.998628161550e-01 0.000000000000e+00 9.999958643449e-01 -2.875985583058e-03 0.000000000000e+00 9.999985183378e-01 -1.721430265280e-03 0.000000000000e+00 9.999989429060e-01 -1.454024383937e-03 0.000000000000e+00 9.999989781290e-01 -1.429594658563e-03 0.000000000000e+00 9.999988409551e-01 -1.522526975441e-03 0.000000000000e+00 9.999994005643e-01 -1.094929741713e-03 0.000000000000e+00 9.999996847265e-01 -7.940697874687e-04 0.000000000000e+00 9.999998345347e-01 -5.752655836308e-04 0.000000000000e+00 9.999999128629e-01 -4.174616029212e-04 0.000000000000e+00 9.999999532874e-01 -3.056554937075e-04 0.000000000000e+00 9.999999736890e-01 -2.293946971474e-04 0.000000000000e+00 9.999999835055e-01 -1.816286478045e-04 0.000000000000e+00 9.999999875140e-01 -1.580253990265e-04 0.000000000000e+00 9.999999877597e-01 -1.564630743221e-04 0.000000000000e+00 9.999999843850e-01 -1.767201601879e-04 0.000000000000e+00 9.999999757246e-01 -2.203424400900e-04 0.000000000000e+00 9.999999578516e-01 -2.903392175287e-04 0.000000000000e+00 9.999999239069e-01 -3.901105504773e-04 0.000000000000e+00 9.999998649930e-01 -5.196287796786e-04 0.000000000000e+00 9.999997845328e-01 -6.564559480514e-04 0.000000000000e+00 -9.792984844722e-02 9.951933203067e-01 0.000000000000e+00 -9.798556018171e-02 9.951878365394e-01 0.000000000000e+00 -9.800785151449e-02 9.951856414969e-01 0.000000000000e+00 -9.801456710565e-02 9.951849801093e-01 0.000000000000e+00 -9.801650693432e-02 9.951847890560e-01 0.000000000000e+00 -9.801707279968e-02 9.951847333233e-01 0.000000000000e+00 -9.801721880082e-02 9.951847189434e-01 0.000000000000e+00 -9.801722529745e-02 9.951847183036e-01 0.000000000000e+00 -9.801720191749e-02 9.951847206063e-01 0.000000000000e+00 -9.801696293289e-02 9.951847441442e-01 0.000000000000e+00 -9.801338003373e-02 9.951850970218e-01 0.000000000000e+00 9.951846355227e-01 9.801806578128e-02 0.000000000000e+00 9.951846475524e-01 9.801794364328e-02 0.000000000000e+00 9.951846736347e-01 9.801767882672e-02 0.000000000000e+00 9.951847352726e-01 9.801705300830e-02 0.000000000000e+00 9.951849388329e-01 9.801498620181e-02 0.000000000000e+00 9.951848142655e-01 9.801625097555e-02 0.000000000000e+00 9.951847957859e-01 9.801643860347e-02 0.000000000000e+00 9.951847923408e-01 9.801647358313e-02 0.000000000000e+00 9.951847918949e-01 9.801647811037e-02 0.000000000000e+00 9.951847925019e-01 9.801647194692e-02 0.000000000000e+00 9.951847897871e-01 9.801649951065e-02 0.000000000000e+00 9.951847887732e-01 9.801650980512e-02 0.000000000000e+00 9.951847873915e-01 9.801652383380e-02 0.000000000000e+00 9.951847865065e-01 9.801653281928e-02 0.000000000000e+00 9.951847960593e-01 9.801643582811e-02 0.000000000000e+00 9.951848401022e-01 9.801598864817e-02 0.000000000000e+00 9.951850017671e-01 9.801434720439e-02 0.000000000000e+00 9.951855861683e-01 9.800841332685e-02 0.000000000000e+00 9.951876024416e-01 9.798793776076e-02 0.000000000000e+00 9.951951416019e-01 9.791133811739e-02 0.000000000000e+00 -1.949165860402e-01 9.808198226415e-01 0.000000000000e+00 -1.950274768052e-01 9.807977789998e-01 0.000000000000e+00 -1.950718437088e-01 9.807889557861e-01 0.000000000000e+00 -1.950852148263e-01 9.807862962726e-01 0.000000000000e+00 -1.950890923998e-01 9.807855249883e-01 0.000000000000e+00 -1.950902270550e-01 9.807852992922e-01 0.000000000000e+00 -1.950905303836e-01 9.807852389563e-01 0.000000000000e+00 -1.950905874764e-01 9.807852275999e-01 0.000000000000e+00 -1.950905674756e-01 9.807852315783e-01 0.000000000000e+00 -1.950902360374e-01 9.807852975055e-01 0.000000000000e+00 -1.950857086711e-01 9.807861980433e-01 0.000000000000e+00 9.807849910779e-01 1.950917765473e-01 0.000000000000e+00 9.807849956237e-01 1.950917536939e-01 0.000000000000e+00 9.807850905205e-01 1.950912766189e-01 0.000000000000e+00 9.807853309783e-01 1.950900677579e-01 0.000000000000e+00 9.807861512919e-01 1.950859437118e-01 0.000000000000e+00 9.807856455248e-01 1.950884864171e-01 0.000000000000e+00 9.807855680549e-01 1.950888758878e-01 0.000000000000e+00 9.807855554246e-01 1.950889393851e-01 0.000000000000e+00 9.807855541492e-01 1.950889457974e-01 0.000000000000e+00 9.807855537198e-01 1.950889479558e-01 0.000000000000e+00 9.807855499906e-01 1.950889667042e-01 0.000000000000e+00 9.807855406616e-01 1.950890136042e-01 0.000000000000e+00 9.807855318670e-01 1.950890578181e-01 0.000000000000e+00 9.807855301591e-01 1.950890664043e-01 0.000000000000e+00 9.807855629877e-01 1.950889013629e-01 0.000000000000e+00 9.807857339765e-01 1.950880417353e-01 0.000000000000e+00 9.807863947066e-01 1.950847199512e-01 0.000000000000e+00 9.807887412943e-01 1.950729221350e-01 0.000000000000e+00 9.807968406367e-01 1.950321957963e-01 0.000000000000e+00 9.808271435583e-01 1.948797435837e-01 0.000000000000e+00 -2.900261890042e-01 9.570187091649e-01 0.000000000000e+00 -2.901911771479e-01 9.569686936914e-01 0.000000000000e+00 -2.902572069051e-01 9.569486683410e-01 0.000000000000e+00 -2.902771215822e-01 9.569426276877e-01 0.000000000000e+00 -2.902829053859e-01 9.569408732209e-01 0.000000000000e+00 -2.902846377017e-01 9.569403477304e-01 0.000000000000e+00 -2.902851288252e-01 9.569401987496e-01 0.000000000000e+00 -2.902852638148e-01 9.569401578009e-01 0.000000000000e+00 -2.902853926219e-01 9.569401187276e-01 0.000000000000e+00 -2.902852542885e-01 9.569401606907e-01 0.000000000000e+00 -2.902847258945e-01 9.569403209774e-01 0.000000000000e+00 9.569399619117e-01 2.902859095727e-01 0.000000000000e+00 9.569398203551e-01 2.902863762198e-01 0.000000000000e+00 9.569399915661e-01 2.902858118155e-01 0.000000000000e+00 9.569405160197e-01 2.902840829257e-01 0.000000000000e+00 9.569423621767e-01 2.902779968783e-01 0.000000000000e+00 9.569412154946e-01 2.902817770507e-01 0.000000000000e+00 9.569410392700e-01 2.902823579910e-01 0.000000000000e+00 9.569410054711e-01 2.902824694119e-01 0.000000000000e+00 9.569410010502e-01 2.902824839859e-01 0.000000000000e+00 9.569409948087e-01 2.902825045615e-01 0.000000000000e+00 9.569409814035e-01 2.902825487531e-01 0.000000000000e+00 9.569409585825e-01 2.902826239843e-01 0.000000000000e+00 9.569409345986e-01 2.902827030491e-01 0.000000000000e+00 9.569409266945e-01 2.902827291058e-01 0.000000000000e+00 9.569410024640e-01 2.902824793254e-01 0.000000000000e+00 9.569413873667e-01 2.902812104577e-01 0.000000000000e+00 9.569428796276e-01 2.902762910230e-01 0.000000000000e+00 9.569481954723e-01 2.902587659010e-01 0.000000000000e+00 9.569665671350e-01 2.901981898391e-01 0.000000000000e+00 9.570353210776e-01 2.899713679139e-01 0.000000000000e+00 -3.823427117199e-01 9.240205900274e-01 0.000000000000e+00 -3.825602010389e-01 9.239305669698e-01 0.000000000000e+00 -3.826472703706e-01 9.238945104707e-01 0.000000000000e+00 -3.826735550597e-01 9.238836237633e-01 0.000000000000e+00 -3.826812140778e-01 9.238804513528e-01 0.000000000000e+00 -3.826835596582e-01 9.238794797847e-01 0.000000000000e+00 -3.826843015945e-01 9.238791724642e-01 0.000000000000e+00 -3.826845813412e-01 9.238790565890e-01 0.000000000000e+00 -3.826849822904e-01 9.238788905097e-01 0.000000000000e+00 -3.826854423887e-01 9.238786999297e-01 0.000000000000e+00 -3.826963443238e-01 9.238741840972e-01 0.000000000000e+00 9.238795536940e-01 3.826833812254e-01 0.000000000000e+00 9.238789429887e-01 3.826848555953e-01 0.000000000000e+00 9.238791269934e-01 3.826844113704e-01 0.000000000000e+00 9.238800195893e-01 3.826822564527e-01 0.000000000000e+00 9.238833060133e-01 3.826743221983e-01 0.000000000000e+00 9.238812304829e-01 3.826793330734e-01 0.000000000000e+00 9.238808999687e-01 3.826801310142e-01 0.000000000000e+00 9.238808347669e-01 3.826802884268e-01 0.000000000000e+00 9.238808125189e-01 3.826803421388e-01 0.000000000000e+00 9.238807904352e-01 3.826803954540e-01 0.000000000000e+00 9.238807562283e-01 3.826804780376e-01 0.000000000000e+00 9.238807092041e-01 3.826805915650e-01 0.000000000000e+00 9.238806559886e-01 3.826807200398e-01 0.000000000000e+00 9.238806379689e-01 3.826807635434e-01 0.000000000000e+00 9.238807648411e-01 3.826804572441e-01 0.000000000000e+00 9.238814508018e-01 3.826788011692e-01 0.000000000000e+00 9.238841307166e-01 3.826723311268e-01 0.000000000000e+00 9.238936943790e-01 3.826492408025e-01 0.000000000000e+00 9.239267442077e-01 3.825694333553e-01 0.000000000000e+00 9.240504909971e-01 3.822704410336e-01 0.000000000000e+00 -4.709771080209e-01 8.821454322958e-01 0.000000000000e+00 -4.712450088037e-01 8.820023478867e-01 0.000000000000e+00 -4.713522783437e-01 8.819450264615e-01 0.000000000000e+00 -4.713847004306e-01 8.819276978301e-01 0.000000000000e+00 -4.713942250997e-01 8.819226068894e-01 0.000000000000e+00 -4.713972061054e-01 8.819210135131e-01 0.000000000000e+00 -4.713982746723e-01 8.819204423507e-01 0.000000000000e+00 -4.713988855122e-01 8.819201158483e-01 0.000000000000e+00 -4.713997734774e-01 8.819196412177e-01 0.000000000000e+00 -4.714014158527e-01 8.819187633405e-01 0.000000000000e+00 -4.714331650991e-01 8.819017920634e-01 0.000000000000e+00 8.819225545388e-01 4.713943230416e-01 0.000000000000e+00 8.819208885013e-01 4.713974399857e-01 0.000000000000e+00 8.819209891326e-01 4.713972517182e-01 0.000000000000e+00 8.819222769359e-01 4.713948424031e-01 0.000000000000e+00 8.819274212532e-01 4.713852178863e-01 0.000000000000e+00 8.819240983320e-01 4.713914347773e-01 0.000000000000e+00 8.819235601544e-01 4.713924416498e-01 0.000000000000e+00 8.819234411502e-01 4.713926642936e-01 0.000000000000e+00 8.819233951949e-01 4.713927502707e-01 0.000000000000e+00 8.819233535787e-01 4.713928281300e-01 0.000000000000e+00 8.819232976735e-01 4.713929327225e-01 0.000000000000e+00 8.819232108717e-01 4.713930951188e-01 0.000000000000e+00 8.819231212803e-01 4.713932627343e-01 0.000000000000e+00 8.819230894613e-01 4.713933222640e-01 0.000000000000e+00 8.819232819672e-01 4.713929621072e-01 0.000000000000e+00 8.819243628702e-01 4.713909398535e-01 0.000000000000e+00 8.819286164315e-01 4.713829817879e-01 0.000000000000e+00 8.819437933615e-01 4.713545855841e-01 0.000000000000e+00 8.819962885845e-01 4.712563494778e-01 0.000000000000e+00 8.821929583087e-01 4.708880804508e-01 0.000000000000e+00 -5.550758119900e-01 8.317997613270e-01 0.000000000000e+00 -5.553914863435e-01 8.315890192259e-01 0.000000000000e+00 -5.555179476606e-01 8.315045458847e-01 0.000000000000e+00 -5.555562347680e-01 8.314789654648e-01 0.000000000000e+00 -5.555675624257e-01 8.314713967301e-01 0.000000000000e+00 -5.555711733292e-01 8.314689840070e-01 0.000000000000e+00 -5.555725033497e-01 8.314680953120e-01 0.000000000000e+00 -5.555732321422e-01 8.314676083451e-01 0.000000000000e+00 -5.555742283624e-01 8.314669426859e-01 0.000000000000e+00 -5.555760064074e-01 8.314657546192e-01 0.000000000000e+00 -5.556140372629e-01 8.314403415738e-01 0.000000000000e+00 8.314718168754e-01 5.555669336290e-01 0.000000000000e+00 8.314694180997e-01 5.555705236646e-01 0.000000000000e+00 8.314695392963e-01 5.555703422812e-01 0.000000000000e+00 8.314711792555e-01 5.555678879016e-01 0.000000000000e+00 8.314787650721e-01 5.555565346876e-01 0.000000000000e+00 8.314739719182e-01 5.555637083382e-01 0.000000000000e+00 8.314732635663e-01 5.555647684783e-01 0.000000000000e+00 8.314731323887e-01 5.555649648022e-01 0.000000000000e+00 8.314731070407e-01 5.555650027388e-01 0.000000000000e+00 8.314730599649e-01 5.555650731935e-01 0.000000000000e+00 8.314729533179e-01 5.555652328042e-01 0.000000000000e+00 8.314728245268e-01 5.555654255562e-01 0.000000000000e+00 8.314726771237e-01 5.555656461633e-01 0.000000000000e+00 8.314725906652e-01 5.555657755590e-01 0.000000000000e+00 8.314728576049e-01 5.555653760506e-01 0.000000000000e+00 8.314744266703e-01 5.555630277415e-01 0.000000000000e+00 8.314806418361e-01 5.555537258015e-01 0.000000000000e+00 8.315029438161e-01 5.555203456446e-01 0.000000000000e+00 8.315801684800e-01 5.554047383583e-01 0.000000000000e+00 8.318697675582e-01 5.549708909687e-01 0.000000000000e+00 -6.338288942653e-01 7.734732915844e-01 0.000000000000e+00 -6.341890658912e-01 7.731780058331e-01 0.000000000000e+00 -6.343332630539e-01 7.730597075152e-01 0.000000000000e+00 -6.343767979074e-01 7.730239829894e-01 0.000000000000e+00 -6.343896028163e-01 7.730134745518e-01 0.000000000000e+00 -6.343936593539e-01 7.730101454519e-01 0.000000000000e+00 -6.343952286702e-01 7.730088575434e-01 0.000000000000e+00 -6.343964267566e-01 7.730078742927e-01 0.000000000000e+00 -6.343985920320e-01 7.730060972773e-01 0.000000000000e+00 -6.344038576870e-01 7.730017757754e-01 0.000000000000e+00 -6.345073157845e-01 7.729168559528e-01 0.000000000000e+00 7.730216712642e-01 6.343796148647e-01 0.000000000000e+00 7.730136370741e-01 6.343894047803e-01 0.000000000000e+00 7.730115537427e-01 6.343919433444e-01 0.000000000000e+00 7.730124366026e-01 6.343908675712e-01 0.000000000000e+00 7.730242372012e-01 6.343764881358e-01 0.000000000000e+00 7.730169116137e-01 6.343854146804e-01 0.000000000000e+00 7.730156852974e-01 6.343869089792e-01 0.000000000000e+00 7.730155252003e-01 6.343871040613e-01 0.000000000000e+00 7.730156159520e-01 6.343869934782e-01 0.000000000000e+00 7.730156673709e-01 6.343869308231e-01 0.000000000000e+00 7.730156329296e-01 6.343869727906e-01 0.000000000000e+00 7.730155214462e-01 6.343871086358e-01 0.000000000000e+00 7.730153534169e-01 6.343873133833e-01 0.000000000000e+00 7.730152471230e-01 6.343874429049e-01 0.000000000000e+00 7.730156044029e-01 6.343870075511e-01 0.000000000000e+00 7.730177503203e-01 6.343843926908e-01 0.000000000000e+00 7.730263874056e-01 6.343738679790e-01 0.000000000000e+00 7.730575077755e-01 6.343359438593e-01 0.000000000000e+00 7.731655479389e-01 6.342042537545e-01 0.000000000000e+00 7.735713998102e-01 6.337091520529e-01 0.000000000000e+00 -7.064780793219e-01 7.077349245570e-01 0.000000000000e+00 -7.068793831279e-01 7.073341061399e-01 0.000000000000e+00 -7.070401817795e-01 7.071733743215e-01 0.000000000000e+00 -7.070888855961e-01 7.071246763241e-01 0.000000000000e+00 -7.071033869258e-01 7.071101754310e-01 0.000000000000e+00 7.071081759370e-01 -7.071053864333e-01 0.000000000000e+00 7.071101540786e-01 -7.071034082784e-01 0.000000000000e+00 7.071115066424e-01 -7.071020556991e-01 0.000000000000e+00 7.071135510204e-01 -7.071000112879e-01 0.000000000000e+00 7.071174995430e-01 -7.070960626676e-01 0.000000000000e+00 7.071898153847e-01 -7.070237372367e-01 0.000000000000e+00 7.071125702352e-01 7.071009920905e-01 0.000000000000e+00 7.071059428550e-01 7.071076195171e-01 0.000000000000e+00 7.071060948628e-01 7.071074675097e-01 0.000000000000e+00 7.071120268706e-01 7.071015354636e-01 0.000000000000e+00 7.071292502545e-01 7.070843114046e-01 0.000000000000e+00 7.071207616434e-01 7.070928004532e-01 0.000000000000e+00 7.071177681400e-01 7.070957940624e-01 0.000000000000e+00 7.071159678045e-01 7.070975944492e-01 0.000000000000e+00 7.071146226836e-01 7.070989396025e-01 0.000000000000e+00 7.071135262654e-01 7.071000360433e-01 0.000000000000e+00 7.071125849426e-01 7.071009773828e-01 0.000000000000e+00 7.071117881114e-01 7.071017742262e-01 0.000000000000e+00 7.071111216880e-01 7.071024406585e-01 0.000000000000e+00 7.071107503249e-01 7.071028120259e-01 0.000000000000e+00 7.071111809883e-01 7.071023813574e-01 0.000000000000e+00 7.071142304202e-01 7.070993318744e-01 0.000000000000e+00 7.071262079025e-01 7.070873539369e-01 0.000000000000e+00 7.071689024934e-01 7.070446544217e-01 0.000000000000e+00 7.073161619455e-01 7.068973384097e-01 0.000000000000e+00 7.078682148551e-01 7.063445266991e-01 0.000000000000e+00 7.723237328192e-01 -6.352291332458e-01 0.000000000000e+00 7.727620422639e-01 -6.346958531739e-01 0.000000000000e+00 7.729375826153e-01 -6.344820670286e-01 0.000000000000e+00 7.729906521337e-01 -6.344174112633e-01 0.000000000000e+00 7.730063400605e-01 -6.343982962038e-01 0.000000000000e+00 7.730112993792e-01 -6.343922532882e-01 0.000000000000e+00 7.730130460307e-01 -6.343901249755e-01 0.000000000000e+00 7.730138947823e-01 -6.343890907586e-01 0.000000000000e+00 7.730149520701e-01 -6.343878024332e-01 0.000000000000e+00 7.730164567040e-01 -6.343859690005e-01 0.000000000000e+00 7.730514526391e-01 -6.343433231087e-01 0.000000000000e+00 6.343964150492e-01 7.730078839007e-01 0.000000000000e+00 6.343927388952e-01 7.730109008527e-01 0.000000000000e+00 6.343952923327e-01 7.730088052966e-01 0.000000000000e+00 6.344085381473e-01 7.729979344900e-01 0.000000000000e+00 6.344093512056e-01 7.729972672027e-01 0.000000000000e+00 6.344044671615e-01 7.730012755782e-01 0.000000000000e+00 6.344043512067e-01 7.730013707427e-01 0.000000000000e+00 6.344040569600e-01 7.730016122316e-01 0.000000000000e+00 6.344034200243e-01 7.730021349657e-01 0.000000000000e+00 6.344025980960e-01 7.730028095221e-01 0.000000000000e+00 6.344017345593e-01 7.730035182249e-01 0.000000000000e+00 6.344008541238e-01 7.730042407950e-01 0.000000000000e+00 6.344001058168e-01 7.730048549263e-01 0.000000000000e+00 6.343996947208e-01 7.730051923100e-01 0.000000000000e+00 6.344002999623e-01 7.730046955923e-01 0.000000000000e+00 6.344043522227e-01 7.730013699088e-01 0.000000000000e+00 6.344202669908e-01 7.729883083406e-01 0.000000000000e+00 6.344767980949e-01 7.729419077002e-01 0.000000000000e+00 6.346721691965e-01 7.727814941155e-01 0.000000000000e+00 6.354065368547e-01 7.721777858254e-01 0.000000000000e+00 8.307318568243e-01 -5.566727782614e-01 0.000000000000e+00 8.312022743582e-01 -5.559701242889e-01 0.000000000000e+00 8.313904517594e-01 -5.556886868772e-01 0.000000000000e+00 8.314472912806e-01 -5.556036373370e-01 0.000000000000e+00 8.314642417680e-01 -5.555782705085e-01 0.000000000000e+00 8.314695911673e-01 -5.555702646507e-01 0.000000000000e+00 8.314714831858e-01 -5.555674330347e-01 0.000000000000e+00 8.314727118604e-01 -5.555655941755e-01 0.000000000000e+00 8.314747442417e-01 -5.555625524531e-01 0.000000000000e+00 8.314786831163e-01 -5.555566573476e-01 0.000000000000e+00 8.315506044013e-01 -5.554490006471e-01 0.000000000000e+00 5.555792470443e-01 8.314635892531e-01 0.000000000000e+00 5.555681566991e-01 8.314709996518e-01 0.000000000000e+00 5.555675519125e-01 8.314714037548e-01 0.000000000000e+00 5.555749871768e-01 8.314664356566e-01 0.000000000000e+00 5.555986803255e-01 8.314506037165e-01 0.000000000000e+00 5.555839463706e-01 8.314604491708e-01 0.000000000000e+00 5.555804481605e-01 8.314627866729e-01 0.000000000000e+00 5.555790576547e-01 8.314637158021e-01 0.000000000000e+00 5.555783066859e-01 8.314642175945e-01 0.000000000000e+00 5.555777530152e-01 8.314645875529e-01 0.000000000000e+00 5.555772510906e-01 8.314649229346e-01 0.000000000000e+00 5.555768298017e-01 8.314652044358e-01 0.000000000000e+00 5.555765299098e-01 8.314654048205e-01 0.000000000000e+00 5.555766038307e-01 8.314653554273e-01 0.000000000000e+00 5.555779791292e-01 8.314644364654e-01 0.000000000000e+00 5.555838474772e-01 8.314605152516e-01 0.000000000000e+00 5.556052042969e-01 8.314462441783e-01 0.000000000000e+00 5.556799546339e-01 8.313962881912e-01 0.000000000000e+00 5.559373552692e-01 8.312241917896e-01 0.000000000000e+00 5.569067904978e-01 8.305749976356e-01 0.000000000000e+00 8.811403064972e-01 -4.728549040309e-01 0.000000000000e+00 8.816377133243e-01 -4.719268401398e-01 0.000000000000e+00 8.818360745827e-01 -4.715560810388e-01 0.000000000000e+00 8.818954786445e-01 -4.714449753115e-01 0.000000000000e+00 8.819138700018e-01 -4.714105704144e-01 0.000000000000e+00 8.819201663305e-01 -4.713987910671e-01 0.000000000000e+00 8.819221020834e-01 -4.713951695306e-01 0.000000000000e+00 8.819223662463e-01 -4.713946753141e-01 0.000000000000e+00 8.819225498085e-01 -4.713943318913e-01 0.000000000000e+00 8.819228690966e-01 -4.713937345409e-01 0.000000000000e+00 8.819451856625e-01 -4.713519804634e-01 0.000000000000e+00 4.714015901668e-01 8.819186701665e-01 0.000000000000e+00 4.713946063403e-01 8.819224031134e-01 0.000000000000e+00 4.713951362985e-01 8.819221198463e-01 0.000000000000e+00 4.714022657154e-01 8.819183090731e-01 0.000000000000e+00 4.714351137097e-01 8.819007504031e-01 0.000000000000e+00 4.714118569893e-01 8.819131822861e-01 0.000000000000e+00 4.714057837979e-01 8.819164285815e-01 0.000000000000e+00 4.714032128077e-01 8.819178028334e-01 0.000000000000e+00 4.714018326388e-01 8.819185405607e-01 0.000000000000e+00 4.714009435578e-01 8.819190157905e-01 0.000000000000e+00 4.714003195356e-01 8.819193493408e-01 0.000000000000e+00 4.713999339945e-01 8.819195554187e-01 0.000000000000e+00 4.713998666397e-01 8.819195914209e-01 0.000000000000e+00 4.714004589782e-01 8.819192748064e-01 0.000000000000e+00 4.714029669633e-01 8.819179342423e-01 0.000000000000e+00 4.714115655449e-01 8.819133380727e-01 0.000000000000e+00 4.714406896580e-01 8.818977696620e-01 0.000000000000e+00 4.715400002393e-01 8.818446734966e-01 0.000000000000e+00 4.718798367206e-01 8.816628719054e-01 0.000000000000e+00 4.731639963479e-01 8.809743654387e-01 0.000000000000e+00 9.230648559845e-01 -3.846443443576e-01 0.000000000000e+00 9.235843252276e-01 -3.833953497291e-01 0.000000000000e+00 9.237925242284e-01 -3.828934214370e-01 0.000000000000e+00 9.238515096060e-01 -3.827510786382e-01 0.000000000000e+00 9.238694261989e-01 -3.827078302503e-01 0.000000000000e+00 9.238776531195e-01 -3.826879695867e-01 0.000000000000e+00 9.238821493490e-01 -3.826771146988e-01 0.000000000000e+00 9.238829007337e-01 -3.826753006557e-01 0.000000000000e+00 9.238787682090e-01 -3.826852775488e-01 0.000000000000e+00 9.238627909985e-01 -3.827238474521e-01 0.000000000000e+00 0.000000000000e+00 0.000000000000e+00 1.000000000000e+00 3.825847177138e-01 9.239204152804e-01 0.000000000000e+00 3.826379797401e-01 9.238983582951e-01 0.000000000000e+00 3.826653593231e-01 9.238870184033e-01 0.000000000000e+00 3.826908569348e-01 9.238764571189e-01 0.000000000000e+00 3.827460274768e-01 9.238536022827e-01 0.000000000000e+00 3.827175999006e-01 9.238653791145e-01 0.000000000000e+00 3.827065691096e-01 9.238699486185e-01 0.000000000000e+00 3.826973486644e-01 9.238737680686e-01 0.000000000000e+00 3.826884971496e-01 9.238774345926e-01 0.000000000000e+00 3.826803121242e-01 9.238808249512e-01 0.000000000000e+00 3.826733051719e-01 9.238837272670e-01 0.000000000000e+00 3.826679422154e-01 9.238859485892e-01 0.000000000000e+00 3.826646095320e-01 9.238873289594e-01 0.000000000000e+00 3.826639948873e-01 9.238875835387e-01 0.000000000000e+00 3.826678916279e-01 9.238859695423e-01 0.000000000000e+00 3.826818348246e-01 9.238801942326e-01 0.000000000000e+00 3.827246139588e-01 9.238624734613e-01 0.000000000000e+00 3.828615898175e-01 9.238057171518e-01 0.000000000000e+00 3.833210067030e-01 9.236151827575e-01 0.000000000000e+00 3.850599016693e-01 9.228915820000e-01 0.000000000000e+00 9.561045475423e-01 -2.930257568354e-01 0.000000000000e+00 9.566295672830e-01 -2.913071763619e-01 0.000000000000e+00 9.568540974445e-01 -2.905688149196e-01 0.000000000000e+00 9.569131067039e-01 -2.903744241809e-01 0.000000000000e+00 9.569210068022e-01 -2.903483885621e-01 0.000000000000e+00 9.569230618159e-01 -2.903416156270e-01 0.000000000000e+00 9.569354135605e-01 -2.903009029849e-01 0.000000000000e+00 9.569649651173e-01 -2.902034726500e-01 0.000000000000e+00 9.570216479846e-01 -2.900164914085e-01 0.000000000000e+00 9.571523624507e-01 -2.895847976931e-01 0.000000000000e+00 0.000000000000e+00 0.000000000000e+00 1.000000000000e+00 2.911415863494e-01 9.566799761142e-01 0.000000000000e+00 2.905693713523e-01 9.568539284718e-01 0.000000000000e+00 2.903710297833e-01 9.569141367242e-01 0.000000000000e+00 2.902824724942e-01 9.569410045361e-01 0.000000000000e+00 2.902800215312e-01 9.569417480180e-01 0.000000000000e+00 2.901845771680e-01 9.569706950444e-01 0.000000000000e+00 2.901515814008e-01 9.569806998109e-01 0.000000000000e+00 2.901417919833e-01 9.569836678568e-01 0.000000000000e+00 2.901442304130e-01 9.569829285615e-01 0.000000000000e+00 2.901532450091e-01 9.569801954119e-01 0.000000000000e+00 2.901656565043e-01 9.569764321996e-01 0.000000000000e+00 2.901798292029e-01 9.569721347687e-01 0.000000000000e+00 2.901952120159e-01 9.569674701488e-01 0.000000000000e+00 2.902122682585e-01 9.569622977695e-01 0.000000000000e+00 2.902330396545e-01 9.569559983055e-01 0.000000000000e+00 2.902641816073e-01 9.569465527791e-01 0.000000000000e+00 2.903297470606e-01 9.569266627970e-01 0.000000000000e+00 2.905190380377e-01 9.568692118245e-01 0.000000000000e+00 2.911563319394e-01 9.566754885392e-01 0.000000000000e+00 2.936119909915e-01 9.559246825697e-01 0.000000000000e+00 9.799758427528e-01 -1.991164172563e-01 0.000000000000e+00 9.804598105236e-01 -1.967194955972e-01 0.000000000000e+00 9.807108073533e-01 -1.954643505614e-01 0.000000000000e+00 9.808280229680e-01 -1.948753174740e-01 0.000000000000e+00 9.808681070437e-01 -1.946734614286e-01 0.000000000000e+00 9.808529443203e-01 -1.947498436926e-01 0.000000000000e+00 0.000000000000e+00 0.000000000000e+00 1.000000000000e+00 0.000000000000e+00 0.000000000000e+00 1.000000000000e+00 0.000000000000e+00 0.000000000000e+00 1.000000000000e+00 0.000000000000e+00 0.000000000000e+00 1.000000000000e+00 0.000000000000e+00 0.000000000000e+00 1.000000000000e+00 1.898246415586e-01 9.818180103548e-01 0.000000000000e+00 1.928290546712e-01 9.812323657904e-01 0.000000000000e+00 1.938716821413e-01 9.810268960960e-01 0.000000000000e+00 1.944404682284e-01 9.809143205781e-01 0.000000000000e+00 1.948512851678e-01 9.808327975086e-01 0.000000000000e+00 1.950707475638e-01 9.807891738008e-01 0.000000000000e+00 1.952309813087e-01 9.807572910447e-01 0.000000000000e+00 1.953400210069e-01 9.807355791410e-01 0.000000000000e+00 1.954115978972e-01 9.807213199514e-01 0.000000000000e+00 1.954576417490e-01 9.807121444552e-01 0.000000000000e+00 1.954868165680e-01 9.807063294117e-01 0.000000000000e+00 1.955046109736e-01 9.807027822373e-01 0.000000000000e+00 1.955135352599e-01 9.807010031249e-01 0.000000000000e+00 1.955132387645e-01 9.807010622345e-01 0.000000000000e+00 1.955014117932e-01 9.807034199935e-01 0.000000000000e+00 1.954797003411e-01 9.807077478814e-01 0.000000000000e+00 1.954777214992e-01 9.807081423122e-01 0.000000000000e+00 1.956371097926e-01 9.806763590869e-01 0.000000000000e+00 1.964870930678e-01 9.805064111253e-01 0.000000000000e+00 2.001474319338e-01 9.797657911411e-01 0.000000000000e+00 0.000000000000e+00 0.000000000000e+00 1.000000000000e+00 0.000000000000e+00 0.000000000000e+00 1.000000000000e+00 0.000000000000e+00 0.000000000000e+00 1.000000000000e+00 9.950492737388e-01 -9.938280953942e-02 0.000000000000e+00 9.950341880915e-01 -9.953373563343e-02 0.000000000000e+00 9.950512120807e-01 -9.936340038801e-02 0.000000000000e+00 9.951018675530e-01 -9.885480864643e-02 0.000000000000e+00 9.951887396442e-01 -9.797638738653e-02 0.000000000000e+00 9.953329600746e-01 -9.650025175673e-02 0.000000000000e+00 9.956564999097e-01 -9.310281514264e-02 0.000000000000e+00 9.994541250738e-01 -3.303712870453e-02 0.000000000000e+00 1.062652041146e-01 9.943378230735e-01 0.000000000000e+00 1.018460717840e-01 9.948001697136e-01 0.000000000000e+00 1.003291166700e-01 9.949543046533e-01 0.000000000000e+00 9.956342573691e-02 9.950312177291e-01 0.000000000000e+00 9.928844419603e-02 9.950586941729e-01 0.000000000000e+00 9.873588284913e-02 9.951136746312e-01 0.000000000000e+00 9.840621548975e-02 9.951463293169e-01 0.000000000000e+00 9.818249425752e-02 9.951684268612e-01 0.000000000000e+00 9.801579064503e-02 9.951848596036e-01 0.000000000000e+00 9.787645095062e-02 9.951985733256e-01 0.000000000000e+00 9.774383159994e-02 9.952116073399e-01 0.000000000000e+00 9.760264890463e-02 9.952254633634e-01 0.000000000000e+00 9.744265322867e-02 9.952411412978e-01 0.000000000000e+00 9.726168873680e-02 9.952588426656e-01 0.000000000000e+00 9.707617134724e-02 9.952769549008e-01 0.000000000000e+00 9.694861405183e-02 9.952893881849e-01 0.000000000000e+00 9.705851853032e-02 9.952786765428e-01 0.000000000000e+00 9.788851833957e-02 9.951973864401e-01 0.000000000000e+00 1.007239473945e-01 9.949144116060e-01 0.000000000000e+00 1.094985260860e-01 9.939869580558e-01 0.000000000000e+00 9.999666208859e-01 8.170502681724e-03 0.000000000000e+00 9.999996517805e-01 -8.345290853390e-04 0.000000000000e+00 0.000000000000e+00 0.000000000000e+00 1.000000000000e+00 0.000000000000e+00 0.000000000000e+00 1.000000000000e+00 0.000000000000e+00 0.000000000000e+00 1.000000000000e+00 0.000000000000e+00 0.000000000000e+00 1.000000000000e+00 0.000000000000e+00 0.000000000000e+00 1.000000000000e+00 0.000000000000e+00 0.000000000000e+00 1.000000000000e+00 9.999993355283e-01 -1.152797912468e-03 0.000000000000e+00 9.999815771724e-01 -6.070034249615e-03 0.000000000000e+00 9.987717121119e-01 -4.954863353352e-02 0.000000000000e+00 -1.991234895405e-02 9.998017295240e-01 0.000000000000e+00 -9.775590070522e-03 9.999522177778e-01 0.000000000000e+00 -6.676576164068e-03 9.999777114170e-01 0.000000000000e+00 -5.140907638209e-03 9.999867854470e-01 0.000000000000e+00 -4.502991881804e-03 9.999898614807e-01 0.000000000000e+00 -3.173255465202e-03 9.999949652122e-01 0.000000000000e+00 -2.263469315062e-03 9.999974383500e-01 0.000000000000e+00 -1.540478570002e-03 9.999988134622e-01 0.000000000000e+00 -9.254296228024e-04 9.999995717899e-01 0.000000000000e+00 -3.690400608109e-04 9.999999319047e-01 0.000000000000e+00 1.645256518124e-04 9.999999864657e-01 0.000000000000e+00 7.036311992753e-04 9.999997524515e-01 0.000000000000e+00 1.270541940629e-03 9.999991928613e-01 0.000000000000e+00 1.878409745050e-03 9.999982357869e-01 0.000000000000e+00 2.520224451205e-03 9.999968242293e-01 0.000000000000e+00 3.140124953986e-03 9.999950697955e-01 0.000000000000e+00 3.560650361170e-03 9.999936608644e-01 0.000000000000e+00 3.298411734504e-03 9.999945602252e-01 0.000000000000e+00 1.102649853624e-03 9.999993920815e-01 0.000000000000e+00 -6.525745544217e-03 9.999787070959e-01 0.000000000000e+00 
        </DataArray>
      </PointData>
      <CellData>
        <DataArray type="Int32" Name="MatGroup" format="ascii">
          0 0 0 0 0 0 0 0 0 0 0 0 0 0 0 0 0 0 0 0 0 0 0 0 0 0 0 0 0 0 0 0 0 0 0 0 0 0 0 0 0 0 0 0 0 0 0 0 0 0 0 0 0 0 0 0 0 0 0 0 0 0 0 0 0 0 0 0 0 0 0 0 0 0 0 0 0 0 0 0 0 0 0 0 0 0 0 0 0 0 0 0 0 0 0 0 0 0 0 0 0 0 0 0 0 0 0 0 0 0 0 0 0 0 0 0 0 0 0 0 0 0 0 0 0 0 0 0 0 0 0 0 0 0 0 0 0 0 0 0 0 0 0 0 0 0 0 0 0 0 0 0 0 0 0 0 0 0 0 0 0 0 0 0 0 0 0 0 0 0 0 0 0 0 0 0 0 0 0 0 0 0 0 0 0 0 0 0 0 0 0 0 0 0 0 0 0 0 0 0 0 0 0 0 0 0 0 0 0 0 0 0 0 0 0 0 0 0 0 0 0 0 0 0 0 0 0 0 0 0 0 0 0 0 0 0 0 0 0 0 0 0 0 0 0 0 0 0 0 0 0 0 0 0 0 0 0 0 0 0 0 0 0 0 0 0 0 0 0 0 0 0 0 0 0 0 0 0 0 0 0 0 0 0 0 0 0 0 0 0 0 0 0 0 0 0 0 0 0 0 0 0 0 0 0 0 0 0 0 0 0 0 0 0 0 0 0 0 0 0 0 0 0 0 0 0 0 0 0 0 0 0 0 0 0 0 0 0 0 0 0 0 0 0 0 0 0 0 0 0 0 0 0 0 0 0 0 0 0 0 0 0 0 0 0 0 0 0 0 0 0 0 0 0 0 0 0 0 0 0 0 0 0 0 0 0 0 0 0 0 0 0 0 0 0 0 0 0 0 0 0 0 0 0 0 0 0 0 0 0 0 0 0 0 0 0 0 0 0 0 0 0 0 0 0 0 0 0 0 0 0 0 0 0 0 0 0 0 0 0 0 0 0 0 0 0 0 0 0 0 0 0 0 0 0 0 0 0 0 0 0 0 0 0 0 0 0 0 0 0 0 0 0 0 0 0 0 0 0 0 
        </DataArray>
      </CellData>
    </Piece>
  </UnstructuredGrid>
</VTKFile>
